29

C          3.289797       0.203189      -1.069202
C          2.064806      -0.222707      -1.452975
N          0.970008       0.006751      -0.696651
C          1.082140       0.717265       0.549995
O          0.084127       0.901390       1.210505
N          2.301199       1.129042       0.906765
C          3.366014       0.894732       0.178747
N          4.541352       1.344415       0.643978
C         -0.307366      -0.541961      -1.092244
C         -0.757837      -1.705557      -0.163181
C         -1.966874      -1.156932       0.598732
C         -2.461569      -0.050743      -0.354200
O         -1.313944       0.419232      -1.058951
C         -3.144278       1.131471       0.356947
O         -2.636857       1.401899       1.624875
O         -2.911288      -2.156029       0.837908
F         -1.068840      -2.787189      -0.920236
F          0.249360      -2.120380       0.640830
H          4.165040       0.022202      -1.667586
H          1.908933      -0.766811      -2.375222
H          5.405963       1.130483       0.181482
H          4.549806       1.779332       1.550413
H         -0.195764      -0.941959      -2.114333
H         -1.584783      -0.709442       1.525927
H         -3.158149      -0.500876      -1.078667
H         -3.054424       2.000104      -0.310229
H         -4.205176       0.900333       0.493632
H         -1.671310       1.508595       1.562087
H         -3.540084      -1.829852       1.490852