60
Generated complex
N       0.000000     0.000000     0.000000
C       0.000000     1.380000     0.000000
C       1.195100    -0.690000     0.000000
C      -1.195100    -0.690000     0.000000
N       1.195100     2.070000     0.000000
N      -1.195100     2.070000     0.000000
N       2.390200     0.000000     0.000000
N       1.195100    -2.070000     0.000000
N      -2.390200     0.000000     0.000000
N      -1.195100    -2.070000     0.000000
C       2.390200     1.380000     0.000000
C       0.000000    -2.760000     0.000000
C      -2.390200     1.380000     0.000000
N       3.585300     2.070000     0.000000
N       0.000000    -4.140000     0.000000
N      -3.585300     2.070000     0.000000
C       3.585300     3.450000     0.000000
C       4.780400     1.380000     0.000000
C      -3.585300     3.450000     0.000000
C      -4.780400     1.380000     0.000000
C       1.195100    -4.830000     0.000000
C      -1.195100    -4.830000     0.000000
N       4.780400     4.140000     0.000000
N       5.975500     2.070000     0.000000
N      -4.780400     4.140000     0.000000
N      -5.975500     2.070000     0.000000
N       2.390200    -5.520000     0.000000
N      -2.390200    -5.520000     0.000000
C       5.975500     3.450000     0.000000
C      -5.975500     3.450000     0.000000
C       0.000000    -6.210000     0.000000
N       7.170600     4.140000     0.000000
N      -7.170600     4.140000     0.000000
N       0.000000    -7.590000     0.000000
C       2.390200     4.140000     0.000000
C      -2.390200     4.140000     0.000000
C       3.585300    -2.760000     0.000000
C      -3.585300    -2.760000     0.000000
C       1.195100     4.830000     0.000000
C      -1.195100     4.830000     0.000000
N       2.390200     5.520000     0.000000
N      -2.390200     5.520000     0.000000
H       7.170600     5.140000     0.000000
H      -7.170600     5.140000     0.000000
H       0.000000    -8.590000     0.000000
H       2.390200     6.520000     0.000000
H      -2.390200     6.520000     0.000000
H       0.000000     5.520000     0.000000
C       0.487239     1.282588     3.399575
C       1.347610     0.250441     3.460538
C       0.891118    -1.140348     3.524906
O       1.575306    -2.128045     3.581715
N      -0.501244    -1.217773     3.513452
C      -1.424811    -0.197904     3.452403
O      -2.614307    -0.374610     3.448132
N      -0.858873     1.061458     3.395796
F       2.669678     0.475170     3.463871
H       0.824870     2.306333     3.352213
H      -0.891328    -2.154104     3.555875
H      -1.505259     1.836794     3.350000
