77
Generated complex
N       0.000000     0.000000     0.000000
C       0.000000     1.380000     0.000000
C       1.195100    -0.690000     0.000000
C      -1.195100    -0.690000     0.000000
N       1.195100     2.070000     0.000000
N      -1.195100     2.070000     0.000000
N       2.390200     0.000000     0.000000
N       1.195100    -2.070000     0.000000
N      -2.390200     0.000000     0.000000
N      -1.195100    -2.070000     0.000000
C       2.390200     1.380000     0.000000
C       0.000000    -2.760000     0.000000
C      -2.390200     1.380000     0.000000
N       3.585300     2.070000     0.000000
N       0.000000    -4.140000     0.000000
N      -3.585300     2.070000     0.000000
C       3.585300     3.450000     0.000000
C       4.780400     1.380000     0.000000
C      -3.585300     3.450000     0.000000
C      -4.780400     1.380000     0.000000
C       1.195100    -4.830000     0.000000
C      -1.195100    -4.830000     0.000000
N       4.780400     4.140000     0.000000
N       5.975500     2.070000     0.000000
N      -4.780400     4.140000     0.000000
N      -5.975500     2.070000     0.000000
N       2.390200    -5.520000     0.000000
N      -2.390200    -5.520000     0.000000
C       5.975500     3.450000     0.000000
C      -5.975500     3.450000     0.000000
C       0.000000    -6.210000     0.000000
N       7.170600     4.140000     0.000000
N      -7.170600     4.140000     0.000000
N       0.000000    -7.590000     0.000000
C       2.390200     4.140000     0.000000
C      -2.390200     4.140000     0.000000
C       3.585300    -2.760000     0.000000
C      -3.585300    -2.760000     0.000000
C       1.195100     4.830000     0.000000
C      -1.195100     4.830000     0.000000
N       2.390200     5.520000     0.000000
N      -2.390200     5.520000     0.000000
H       7.170600     5.140000     0.000000
H      -7.170600     5.140000     0.000000
H       0.000000    -8.590000     0.000000
H       2.390200     6.520000     0.000000
H      -2.390200     6.520000     0.000000
H       0.000000     5.520000     0.000000
C      -0.203189     3.289797     4.656021
C       0.222707     2.064806     4.272247
N      -0.006751     0.970008     5.028571
C      -0.717265     1.082140     6.275218
O      -0.901391     0.084127     6.935727
N      -1.129042     2.301199     6.631987
C      -0.894732     3.366014     5.903970
N      -1.344415     4.541352     6.369200
C       0.541961    -0.307366     4.632979
C       1.705557    -0.757837     5.562042
C       1.156932    -1.966874     6.323955
C       0.050743    -2.461569     5.371022
O      -0.419232    -1.313944     4.666271
C      -1.131471    -3.144278     6.082169
O      -1.401899    -2.636857     7.350098
O       2.156029    -2.911288     6.563130
F       2.787188    -1.068840     4.804986
F       2.120380     0.249360     6.366052
H      -0.022202     4.165040     4.057637
H       0.766811     1.908933     3.350000
H      -1.130483     5.405963     5.906704
H      -1.779332     4.549806     7.275636
H       0.941959    -0.195764     3.610889
H       0.709442    -1.584783     7.251149
H       0.500876    -3.158149     4.646555
H      -2.000104    -3.054424     5.414994
H      -0.900333    -4.205176     6.218854
H      -1.508596    -1.671310     7.287310
H       1.829852    -3.540084     7.216074
