77
Generated complex
N       0.000000     0.000000     0.000000
C       0.000000     1.380000     0.000000
C       1.195100    -0.690000     0.000000
C      -1.195100    -0.690000     0.000000
N       1.195100     2.070000     0.000000
N      -1.195100     2.070000     0.000000
N       2.390200     0.000000     0.000000
N       1.195100    -2.070000     0.000000
N      -2.390200     0.000000     0.000000
N      -1.195100    -2.070000     0.000000
C       2.390200     1.380000     0.000000
C       0.000000    -2.760000     0.000000
C      -2.390200     1.380000     0.000000
N       3.585300     2.070000     0.000000
N       0.000000    -4.140000     0.000000
N      -3.585300     2.070000     0.000000
C       3.585300     3.450000     0.000000
C       4.780400     1.380000     0.000000
C      -3.585300     3.450000     0.000000
C      -4.780400     1.380000     0.000000
C       1.195100    -4.830000     0.000000
C      -1.195100    -4.830000     0.000000
N       4.780400     4.140000     0.000000
N       5.975500     2.070000     0.000000
N      -4.780400     4.140000     0.000000
N      -5.975500     2.070000     0.000000
N       2.390200    -5.520000     0.000000
N      -2.390200    -5.520000     0.000000
C       5.975500     3.450000     0.000000
C      -5.975500     3.450000     0.000000
C       0.000000    -6.210000     0.000000
N       7.170600     4.140000     0.000000
N      -7.170600     4.140000     0.000000
N       0.000000    -7.590000     0.000000
C       2.390200     4.140000     0.000000
C      -2.390200     4.140000     0.000000
C       3.585300    -2.760000     0.000000
C      -3.585300    -2.760000     0.000000
C       1.195100     4.830000     0.000000
C      -1.195100     4.830000     0.000000
N       2.390200     5.520000     0.000000
N      -2.390200     5.520000     0.000000
H       7.170600     5.140000     0.000000
H      -7.170600     5.140000     0.000000
H       0.000000    -8.590000     0.000000
H       2.390200     6.520000     0.000000
H      -2.390200     6.520000     0.000000
H       0.000000     5.520000     0.000000
C       3.289797    -0.203189     6.044077
C       2.064806     0.222707     6.427850
N       0.970008    -0.006751     5.671526
C       1.082140    -0.717265     4.424880
O       0.084127    -0.901391     3.764371
N       2.301199    -1.129042     4.068111
C       3.366014    -0.894732     4.796128
N       4.541352    -1.344415     4.330897
C      -0.307366     0.541961     6.067119
C      -0.757837     1.705557     5.138056
C      -1.966874     1.156932     4.376143
C      -2.461569     0.050743     5.329075
O      -1.313944    -0.419232     6.033827
C      -3.144278    -1.131471     4.617929
O      -2.636857    -1.401899     3.350000
O      -2.911288     2.156029     4.136967
F      -1.068840     2.787188     5.895111
F       0.249360     2.120380     4.334045
H       4.165040    -0.022202     6.642461
H       1.908933     0.766811     7.350098
H       5.405963    -1.130483     4.793393
H       4.549806    -1.779332     3.424462
H      -0.195764     0.941959     7.089209
H      -1.584783     0.709442     3.448948
H      -3.158149     0.500876     6.053542
H      -3.054424    -2.000104     5.285104
H      -4.205176    -0.900333     4.481244
H      -1.671310    -1.508596     3.412788
H      -3.540084     1.829852     3.484024
