77
Generated complex
N       0.000000     0.000000     0.000000
C       0.000000     1.380000     0.000000
C       1.195100    -0.690000     0.000000
C      -1.195100    -0.690000     0.000000
N       1.195100     2.070000     0.000000
N      -1.195100     2.070000     0.000000
N       2.390200     0.000000     0.000000
N       1.195100    -2.070000     0.000000
N      -2.390200     0.000000     0.000000
N      -1.195100    -2.070000     0.000000
C       2.390200     1.380000     0.000000
C       0.000000    -2.760000     0.000000
C      -2.390200     1.380000     0.000000
N       3.585300     2.070000     0.000000
N       0.000000    -4.140000     0.000000
N      -3.585300     2.070000     0.000000
C       3.585300     3.450000     0.000000
C       4.780400     1.380000     0.000000
C      -3.585300     3.450000     0.000000
C      -4.780400     1.380000     0.000000
C       1.195100    -4.830000     0.000000
C      -1.195100    -4.830000     0.000000
N       4.780400     4.140000     0.000000
N       5.975500     2.070000     0.000000
N      -4.780400     4.140000     0.000000
N      -5.975500     2.070000     0.000000
N       2.390200    -5.520000     0.000000
N      -2.390200    -5.520000     0.000000
C       5.975500     3.450000     0.000000
C      -5.975500     3.450000     0.000000
C       0.000000    -6.210000     0.000000
N       7.170600     4.140000     0.000000
N      -7.170600     4.140000     0.000000
N       0.000000    -7.590000     0.000000
C       2.390200     4.140000     0.000000
C      -2.390200     4.140000     0.000000
C       3.585300    -2.760000     0.000000
C      -3.585300    -2.760000     0.000000
C       1.195100     4.830000     0.000000
C      -1.195100     4.830000     0.000000
N       2.390200     5.520000     0.000000
N      -2.390200     5.520000     0.000000
H       7.170600     5.140000     0.000000
H      -7.170600     5.140000     0.000000
H       0.000000    -8.590000     0.000000
H       2.390200     6.520000     0.000000
H      -2.390200     6.520000     0.000000
H       0.000000     5.520000     0.000000
C       3.289797     0.203189     4.656021
C       2.064806    -0.222707     4.272247
N       0.970008     0.006751     5.028571
C       1.082140     0.717265     6.275218
O       0.084127     0.901391     6.935727
N       2.301199     1.129042     6.631987
C       3.366014     0.894732     5.903970
N       4.541352     1.344415     6.369200
C      -0.307366    -0.541961     4.632979
C      -0.757837    -1.705557     5.562042
C      -1.966874    -1.156932     6.323955
C      -2.461569    -0.050743     5.371022
O      -1.313944     0.419232     4.666271
C      -3.144278     1.131471     6.082169
O      -2.636857     1.401899     7.350098
O      -2.911288    -2.156029     6.563130
F      -1.068840    -2.787188     4.804986
F       0.249360    -2.120380     6.366052
H       4.165040     0.022202     4.057637
H       1.908933    -0.766811     3.350000
H       5.405963     1.130483     5.906704
H       4.549806     1.779332     7.275636
H      -0.195764    -0.941959     3.610889
H      -1.584783    -0.709442     7.251149
H      -3.158149    -0.500876     4.646555
H      -3.054424     2.000104     5.414994
H      -4.205176     0.900333     6.218854
H      -1.671310     1.508596     7.287310
H      -3.540084    -1.829852     7.216074
