123
Generated complex
N       0.000000     0.000000     0.000000
C       0.000000     1.380000     0.000000
C       1.195100    -0.690000     0.000000
C      -1.195100    -0.690000     0.000000
N       1.195100     2.070000     0.000000
N      -1.195100     2.070000     0.000000
N       2.390200     0.000000     0.000000
N       1.195100    -2.070000     0.000000
N      -2.390200     0.000000     0.000000
N      -1.195100    -2.070000     0.000000
C       2.390200     1.380000     0.000000
C       0.000000    -2.760000     0.000000
C      -2.390200     1.380000     0.000000
N       3.585300     2.070000     0.000000
N       0.000000    -4.140000     0.000000
N      -3.585300     2.070000     0.000000
C       3.585300     3.450000     0.000000
C       4.780400     1.380000     0.000000
C      -3.585300     3.450000     0.000000
C      -4.780400     1.380000     0.000000
C       1.195100    -4.830000     0.000000
C      -1.195100    -4.830000     0.000000
N       4.780400     4.140000     0.000000
N       5.975500     2.070000     0.000000
N      -4.780400     4.140000     0.000000
N      -5.975500     2.070000     0.000000
N       2.390200    -5.520000     0.000000
N      -2.390200    -5.520000     0.000000
C       5.975500     3.450000     0.000000
C      -5.975500     3.450000     0.000000
C       0.000000    -6.210000     0.000000
N       7.170600     4.140000     0.000000
N      -7.170600     4.140000     0.000000
N       0.000000    -7.590000     0.000000
C       2.390200     4.140000     0.000000
C      -2.390200     4.140000     0.000000
C       3.585300    -2.760000     0.000000
C      -3.585300    -2.760000     0.000000
C       1.195100     4.830000     0.000000
C      -1.195100     4.830000     0.000000
N       2.390200     5.520000     0.000000
N      -2.390200     5.520000     0.000000
H       7.170600     5.140000     0.000000
H      -7.170600     5.140000     0.000000
H       0.000000    -8.590000     0.000000
H       2.390200     6.520000     0.000000
H      -2.390200     6.520000     0.000000
H       0.000000     5.520000     0.000000
C      -3.166099    -0.423777     9.707100
C      -3.659467    -1.385821     9.183351
C      -4.332038    -2.554749     8.757712
C      -4.805243    -3.420568     9.725270
C      -5.560944    -4.553179     9.420772
C      -5.879440    -4.807165     8.116655
C      -5.427955    -3.961837     7.081407
C      -5.793895    -4.210778     5.744364
C      -5.375753    -3.380660     4.735849
C      -4.524464    -2.301294     5.033188
C      -4.124790    -2.050364     6.319954
C      -4.605755    -2.844768     7.392136
C      -3.124597    -0.981817     6.524454
N      -3.468602     0.266676     6.184234
C      -2.607582     1.238281     6.345434
C      -1.311903     1.063210     6.850285
C      -0.869047    -0.274567     7.053719
C      -1.836264    -1.288147     6.914516
F      -1.481592    -2.569330     7.123692
N       0.412699    -0.586712     7.316838
C       1.260511     0.415178     7.307390
N       0.960196     1.712643     7.209114
C      -0.306410     2.074506     7.069006
N      -0.573040     3.394163     7.095063
C      -1.792253     3.961669     7.623467
C      -1.479173     4.704697     8.936888
C      -0.694762     3.782939     9.899652
C       0.775762     4.055445     9.541149
C       0.672853     5.074952     8.387075
C       0.519634     4.347203     7.047882
N      -0.575960     5.794452     8.603426
O       2.557250     0.191738     7.465486
C       2.970369    -1.157903     7.606089
C       4.448726    -1.173291     8.020199
C       4.928905    -2.620389     8.254456
C       6.326418    -2.638138     7.640346
C       6.142942    -1.693912     6.449053
N       5.268018    -0.633000     6.921314
C       5.928765     0.585245     7.353523
C       5.136322     1.058232     8.570533
C       4.688366    -0.245892     9.220386
F       5.929063     1.803411     9.419086
O      -5.722856    -3.560264     3.437097
F      -4.553723    -3.164612    11.026959
H      -2.708999     0.437907    10.092476
H      -5.894156    -5.189285    10.225583
H      -6.489894    -5.660549     7.862580
H      -6.419570    -5.066617     5.527401
H      -4.172470    -1.684770     4.222091
H      -2.948235     2.204709     6.000340
H      -2.523820     3.181291     7.822099
H      -2.203181     4.679621     6.906680
H      -2.411279     5.081410     9.362201
H      -0.908288     4.046856    10.935439
H      -0.963983     2.737869     9.752450
H       1.313339     4.488476    10.384263
H       1.299528     3.158278     9.219152
H       1.519597     5.760471     8.336477
H       1.429703     3.808685     6.791005
H       0.284458     5.086507     6.276241
H      -0.487118     6.435763     9.385871
H       2.348541    -1.659055     8.355823
H       2.842739    -1.674198     6.649071
H       4.920626    -2.881213     9.310600
H       4.280127    -3.315895     7.721256
H       7.056590    -2.224155     8.337880
H       6.649775    -3.634020     7.346816
H       5.637005    -2.220034     5.632737
H       7.078566    -1.284395     6.068851
H       6.970847     0.414760     7.663095
H       5.922880     1.319217     6.543824
H       4.290141     1.690587     8.291613
H       3.802325    -0.125338     9.838866
H       5.505226    -0.621572     9.839236
H      -6.294209    -4.333014     3.350000
