123
Generated complex
N       0.000000     0.000000     0.000000
C       0.000000     1.380000     0.000000
C       1.195100    -0.690000     0.000000
C      -1.195100    -0.690000     0.000000
N       1.195100     2.070000     0.000000
N      -1.195100     2.070000     0.000000
N       2.390200     0.000000     0.000000
N       1.195100    -2.070000     0.000000
N      -2.390200     0.000000     0.000000
N      -1.195100    -2.070000     0.000000
C       2.390200     1.380000     0.000000
C       0.000000    -2.760000     0.000000
C      -2.390200     1.380000     0.000000
N       3.585300     2.070000     0.000000
N       0.000000    -4.140000     0.000000
N      -3.585300     2.070000     0.000000
C       3.585300     3.450000     0.000000
C       4.780400     1.380000     0.000000
C      -3.585300     3.450000     0.000000
C      -4.780400     1.380000     0.000000
C       1.195100    -4.830000     0.000000
C      -1.195100    -4.830000     0.000000
N       4.780400     4.140000     0.000000
N       5.975500     2.070000     0.000000
N      -4.780400     4.140000     0.000000
N      -5.975500     2.070000     0.000000
N       2.390200    -5.520000     0.000000
N      -2.390200    -5.520000     0.000000
C       5.975500     3.450000     0.000000
C      -5.975500     3.450000     0.000000
C       0.000000    -6.210000     0.000000
N       7.170600     4.140000     0.000000
N      -7.170600     4.140000     0.000000
N       0.000000    -7.590000     0.000000
C       2.390200     4.140000     0.000000
C      -2.390200     4.140000     0.000000
C       3.585300    -2.760000     0.000000
C      -3.585300    -2.760000     0.000000
C       1.195100     4.830000     0.000000
C      -1.195100     4.830000     0.000000
N       2.390200     5.520000     0.000000
N      -2.390200     5.520000     0.000000
H       7.170600     5.140000     0.000000
H      -7.170600     5.140000     0.000000
H       0.000000    -8.590000     0.000000
H       2.390200     6.520000     0.000000
H      -2.390200     6.520000     0.000000
H       0.000000     5.520000     0.000000
C       0.423777    -3.166099     9.707100
C       1.385821    -3.659467     9.183351
C       2.554749    -4.332038     8.757712
C       3.420568    -4.805243     9.725270
C       4.553179    -5.560944     9.420772
C       4.807165    -5.879440     8.116655
C       3.961837    -5.427955     7.081407
C       4.210778    -5.793895     5.744364
C       3.380660    -5.375753     4.735849
C       2.301294    -4.524464     5.033188
C       2.050364    -4.124790     6.319954
C       2.844768    -4.605755     7.392136
C       0.981817    -3.124597     6.524454
N      -0.266676    -3.468602     6.184234
C      -1.238281    -2.607582     6.345434
C      -1.063210    -1.311903     6.850285
C       0.274567    -0.869047     7.053719
C       1.288147    -1.836264     6.914516
F       2.569330    -1.481592     7.123692
N       0.586712     0.412699     7.316838
C      -0.415178     1.260511     7.307390
N      -1.712643     0.960196     7.209114
C      -2.074506    -0.306410     7.069006
N      -3.394163    -0.573040     7.095063
C      -3.961669    -1.792253     7.623467
C      -4.704697    -1.479173     8.936888
C      -3.782939    -0.694762     9.899652
C      -4.055445     0.775762     9.541149
C      -5.074952     0.672853     8.387075
C      -4.347203     0.519634     7.047882
N      -5.794452    -0.575960     8.603426
O      -0.191738     2.557250     7.465486
C       1.157903     2.970369     7.606089
C       1.173291     4.448726     8.020199
C       2.620389     4.928905     8.254456
C       2.638138     6.326418     7.640346
C       1.693912     6.142942     6.449053
N       0.633000     5.268018     6.921314
C      -0.585245     5.928765     7.353523
C      -1.058232     5.136322     8.570533
C       0.245892     4.688366     9.220386
F      -1.803411     5.929063     9.419086
O       3.560264    -5.722856     3.437097
F       3.164612    -4.553723    11.026959
H      -0.437907    -2.708999    10.092476
H       5.189285    -5.894156    10.225583
H       5.660549    -6.489894     7.862580
H       5.066617    -6.419570     5.527401
H       1.684770    -4.172470     4.222091
H      -2.204709    -2.948235     6.000340
H      -3.181291    -2.523820     7.822099
H      -4.679621    -2.203181     6.906680
H      -5.081410    -2.411279     9.362201
H      -4.046856    -0.908288    10.935439
H      -2.737869    -0.963983     9.752450
H      -4.488476     1.313339    10.384263
H      -3.158278     1.299528     9.219152
H      -5.760471     1.519597     8.336477
H      -3.808685     1.429703     6.791005
H      -5.086507     0.284458     6.276241
H      -6.435763    -0.487118     9.385871
H       1.659055     2.348541     8.355823
H       1.674198     2.842739     6.649071
H       2.881213     4.920626     9.310600
H       3.315895     4.280127     7.721256
H       2.224155     7.056590     8.337880
H       3.634020     6.649775     7.346816
H       2.220034     5.637005     5.632737
H       1.284395     7.078566     6.068851
H      -0.414760     6.970847     7.663095
H      -1.319217     5.922880     6.543824
H      -1.690587     4.290141     8.291613
H       0.125338     3.802325     9.838866
H       0.621572     5.505226     9.839236
H       4.333014    -6.294209     3.350000
