123
Generated complex
N       0.000000     0.000000     0.000000
C       0.000000     1.380000     0.000000
C       1.195100    -0.690000     0.000000
C      -1.195100    -0.690000     0.000000
N       1.195100     2.070000     0.000000
N      -1.195100     2.070000     0.000000
N       2.390200     0.000000     0.000000
N       1.195100    -2.070000     0.000000
N      -2.390200     0.000000     0.000000
N      -1.195100    -2.070000     0.000000
C       2.390200     1.380000     0.000000
C       0.000000    -2.760000     0.000000
C      -2.390200     1.380000     0.000000
N       3.585300     2.070000     0.000000
N       0.000000    -4.140000     0.000000
N      -3.585300     2.070000     0.000000
C       3.585300     3.450000     0.000000
C       4.780400     1.380000     0.000000
C      -3.585300     3.450000     0.000000
C      -4.780400     1.380000     0.000000
C       1.195100    -4.830000     0.000000
C      -1.195100    -4.830000     0.000000
N       4.780400     4.140000     0.000000
N       5.975500     2.070000     0.000000
N      -4.780400     4.140000     0.000000
N      -5.975500     2.070000     0.000000
N       2.390200    -5.520000     0.000000
N      -2.390200    -5.520000     0.000000
C       5.975500     3.450000     0.000000
C      -5.975500     3.450000     0.000000
C       0.000000    -6.210000     0.000000
N       7.170600     4.140000     0.000000
N      -7.170600     4.140000     0.000000
N       0.000000    -7.590000     0.000000
C       2.390200     4.140000     0.000000
C      -2.390200     4.140000     0.000000
C       3.585300    -2.760000     0.000000
C      -3.585300    -2.760000     0.000000
C       1.195100     4.830000     0.000000
C      -1.195100     4.830000     0.000000
N       2.390200     5.520000     0.000000
N      -2.390200     5.520000     0.000000
H       7.170600     5.140000     0.000000
H      -7.170600     5.140000     0.000000
H       0.000000    -8.590000     0.000000
H       2.390200     6.520000     0.000000
H      -2.390200     6.520000     0.000000
H       0.000000     5.520000     0.000000
C      -3.166099     0.423777     4.669859
C      -3.659467     1.385821     5.193608
C      -4.332038     2.554749     5.619247
C      -4.805243     3.420568     4.651689
C      -5.560944     4.553179     4.956187
C      -5.879440     4.807165     6.260304
C      -5.427955     3.961837     7.295552
C      -5.793895     4.210778     8.632595
C      -5.375753     3.380660     9.641109
C      -4.524464     2.301294     9.343771
C      -4.124790     2.050364     8.057005
C      -4.605755     2.844768     6.984823
C      -3.124597     0.981817     7.852505
N      -3.468602    -0.266676     8.192725
C      -2.607582    -1.238281     8.031525
C      -1.311903    -1.063210     7.526674
C      -0.869047     0.274567     7.323240
C      -1.836264     1.288147     7.462443
F      -1.481592     2.569330     7.253267
N       0.412699     0.586712     7.060120
C       1.260511    -0.415178     7.069569
N       0.960196    -1.712643     7.167844
C      -0.306410    -2.074506     7.307953
N      -0.573040    -3.394163     7.281896
C      -1.792253    -3.961669     6.753492
C      -1.479173    -4.704697     5.440071
C      -0.694762    -3.782939     4.477307
C       0.775762    -4.055445     4.835810
C       0.672853    -5.074952     5.989884
C       0.519634    -4.347203     7.329076
N      -0.575960    -5.794452     5.773533
O       2.557250    -0.191738     6.911473
C       2.970369     1.157903     6.770869
C       4.448726     1.173291     6.356760
C       4.928905     2.620389     6.122502
C       6.326418     2.638138     6.736612
C       6.142942     1.693912     7.927906
N       5.268018     0.633000     7.455645
C       5.928765    -0.585245     7.023436
C       5.136322    -1.058232     5.806425
C       4.688366     0.245892     5.156573
F       5.929063    -1.803411     4.957873
O      -5.722856     3.560264    10.939862
F      -4.553723     3.164612     3.350000
H      -2.708999    -0.437907     4.284482
H      -5.894156     5.189285     4.151376
H      -6.489894     5.660549     6.514379
H      -6.419570     5.066617     8.849558
H      -4.172470     1.684770    10.154867
H      -2.948235    -2.204709     8.376619
H      -2.523820    -3.181291     6.554860
H      -2.203181    -4.679621     7.470279
H      -2.411279    -5.081410     5.014758
H      -0.908288    -4.046856     3.441520
H      -0.963983    -2.737869     4.624508
H       1.313339    -4.488476     3.992696
H       1.299528    -3.158278     5.157807
H       1.519597    -5.760471     6.040482
H       1.429703    -3.808685     7.585954
H       0.284458    -5.086507     8.100718
H      -0.487118    -6.435763     4.991088
H       2.348541     1.659055     6.021136
H       2.842739     1.674198     7.727887
H       4.920626     2.881213     5.066359
H       4.280127     3.315895     6.655703
H       7.056590     2.224155     6.039079
H       6.649775     3.634020     7.030142
H       5.637005     2.220034     8.744222
H       7.078566     1.284395     8.308108
H       6.970847    -0.414760     6.713864
H       5.922880    -1.319217     7.833134
H       4.290141    -1.690587     6.085345
H       3.802325     0.125338     4.538093
H       5.505226     0.621572     4.537723
H      -6.294209     4.333014    11.026959
