75
Generated complex
C      -3.166099    -0.423777     1.977932
C      -3.659467    -1.385821     1.454183
C      -4.332038    -2.554749     1.028544
C      -4.805243    -3.420568     1.996102
C      -5.560944    -4.553179     1.691604
C      -5.879440    -4.807165     0.387487
C      -5.427955    -3.961837    -0.647761
C      -5.793895    -4.210778    -1.984804
C      -5.375753    -3.380660    -2.993318
C      -4.524464    -2.301294    -2.695980
C      -4.124790    -2.050364    -1.409214
C      -4.605755    -2.844768    -0.337032
C      -3.124597    -0.981817    -1.204714
N      -3.468602     0.266676    -1.544934
C      -2.607582     1.238281    -1.383734
C      -1.311903     1.063210    -0.878883
C      -0.869047    -0.274567    -0.675449
C      -1.836264    -1.288147    -0.814652
F      -1.481592    -2.569330    -0.605476
N       0.412699    -0.586712    -0.412330
C       1.260511     0.415178    -0.421778
N       0.960196     1.712643    -0.520053
C      -0.306410     2.074506    -0.660162
N      -0.573040     3.394163    -0.634105
C      -1.792253     3.961669    -0.105701
C      -1.479173     4.704697     1.207720
C      -0.694762     3.782939     2.170484
C       0.775762     4.055445     1.811981
C       0.672853     5.074952     0.657907
C       0.519634     4.347203    -0.681285
N      -0.575960     5.794452     0.874258
O       2.557250     0.191738    -0.263682
C       2.970369    -1.157903    -0.123078
C       4.448726    -1.173291     0.291031
C       4.928905    -2.620389     0.525289
C       6.326418    -2.638138    -0.088821
C       6.142942    -1.693912    -1.280115
N       5.268018    -0.633000    -0.807854
C       5.928765     0.585245    -0.375645
C       5.136322     1.058232     0.841366
C       4.688366    -0.245892     1.491218
F       5.929063     1.803411     1.689918
O      -5.722856    -3.560264    -4.292071
F      -4.553723    -3.164612     3.297791
H      -2.708999     0.437907     2.363309
H      -5.894156    -5.189285     2.496415
H      -6.489894    -5.660548     0.133412
H      -6.419570    -5.066617    -2.201767
H      -4.172470    -1.684770    -3.507076
H      -2.948235     2.204709    -1.728828
H      -2.523820     3.181291     0.092931
H      -2.203181     4.679621    -0.822488
H      -2.411279     5.081410     1.633033
H      -0.908288     4.046856     3.206271
H      -0.963983     2.737869     2.023283
H       1.313339     4.488476     2.655095
H       1.299528     3.158278     1.489984
H       1.519597     5.760471     0.607309
H       1.429703     3.808685    -0.938163
H       0.284458     5.086507    -1.452927
H      -0.487118     6.435763     1.656703
H       2.348541    -1.659055     0.626655
H       2.842739    -1.674198    -1.080096
H       4.920626    -2.881213     1.581432
H       4.280127    -3.315895    -0.007912
H       7.056590    -2.224155     0.608712
H       6.649775    -3.634020    -0.382351
H       5.637005    -2.220034    -2.096431
H       7.078566    -1.284395    -1.660317
H       6.970847     0.414760    -0.066073
H       5.922881     1.319217    -1.185343
H       4.290141     1.690587     0.562446
H       3.802325    -0.125338     2.109698
H       5.505226    -0.621572     2.110068
H      -6.294209    -4.333014    -4.379168
