12
3D optimized structure of 5-Fluorouracil
C       0.496733     1.283831    -0.058616
C       1.358979     0.268632     0.001539
C       0.849740    -1.120258     0.065236
O       1.591237    -2.094621     0.122004
N      -0.518714    -1.238932     0.056103
C      -1.408337    -0.199963    -0.005530
O      -2.621587    -0.372654    -0.010283
N      -0.853687     1.053592    -0.061956
F       2.691803     0.449672     0.007229
H       0.826155     2.315454    -0.106483
H      -0.901982    -2.170413     0.098394
H      -1.510339     1.825659    -0.107636
