69
3D optimized structure of Abemaciclib
C     -10.720836    -2.335647     0.363694
C      -9.371368    -2.078612    -0.299558
N      -8.969531    -0.666261    -0.252397
C      -8.796878    -0.185191     1.135836
C      -7.854703     1.033394     1.228986
N      -6.467781     0.708098     0.833089
C      -6.445738    -0.314980    -0.235349
C      -7.752007    -0.420934    -1.055100
C      -5.744998     1.935236     0.466297
C      -4.249220     1.756358     0.401671
C      -3.511681     2.265701    -0.656178
N      -2.165533     2.167009    -0.767881
C      -1.482325     1.538668     0.216386
C      -2.142749     1.010338     1.318106
C      -3.531047     1.123603     1.414010
N      -0.115003     1.481483     0.022902
C       0.950494     0.956444     0.727393
N       0.780662     0.318888     1.895796
C       1.884102    -0.156089     2.506779
C       3.148933    -0.025958     1.995218
C       3.256652     0.635528     0.788852
N       2.158078     1.129941     0.159782
C       4.540588     0.869681     0.089965
C       5.602453    -0.061918     0.154299
C       6.801886     0.212291    -0.531669
C       6.976817     1.376161    -1.272857
C       5.920881     2.295885    -1.347042
C       4.723492     2.036390    -0.674645
F       6.039169     3.430982    -2.051298
N       8.229942     1.411412    -1.826199
C       8.836547     0.304888    -1.447054
N       7.999549    -0.472382    -0.668219
C       8.281024    -1.766050    -0.048178
C       9.140783    -1.620451     1.206938
C       8.841381    -2.815805    -1.008879
C      10.229790    -0.035298    -1.832758
F       4.202841    -0.511672     2.663963
H     -11.498168    -1.692153    -0.061695
H     -10.683182    -2.166223     1.444212
H     -11.022540    -3.376090     0.203720
H      -9.467887    -2.388395    -1.347764
H      -8.607842    -2.721338     0.156219
H      -9.776732     0.099196     1.536330
H      -8.397424    -0.978468     1.782541
H      -7.846503     1.400573     2.261982
H      -8.266369     1.838261     0.604149
H      -5.604698    -0.171833    -0.923939
H      -6.264717    -1.284164     0.247585
H      -7.899191     0.526912    -1.589438
H      -7.628602    -1.178223    -1.839350
H      -6.126406     2.328114    -0.485616
H      -5.926725     2.711754     1.221808
H      -3.991048     2.787935    -1.479989
H      -1.605528     0.508838     2.113711
H      -4.046903     0.710371     2.277583
H       0.169860     1.922852    -0.837125
H       1.717702    -0.659707     3.453043
H       5.493469    -0.984087     0.717049
H       3.928429     2.774909    -0.756204
H       7.311470    -2.161614     0.275995
H      10.148314    -1.263062     0.976109
H       9.238094    -2.582801     1.720756
H       8.690753    -0.909572     1.908794
H       8.774190    -3.812662    -0.558764
H       8.279207    -2.833559    -1.948626
H       9.895669    -2.644780    -1.242044
H      10.737156     0.852023    -2.226478
H      10.815401    -0.391340    -0.982882
H      10.236085    -0.792797    -2.621623
