78
3D optimized structure of Adagrasib
C       6.877026     0.171778    -0.715437
N       6.327712    -0.404615     0.506804
C       7.251049    -1.375834     1.100288
C       6.380348    -2.113582     2.102304
C       4.963321    -2.012696     1.548810
C       5.082362    -1.160660     0.278577
C       3.835474    -0.291981     0.049006
O       2.707900    -1.156900    -0.106568
C       1.542578    -0.487438    -0.401592
N       1.507239     0.847985    -0.361520
C       0.324599     1.425882    -0.659221
C      -0.804987     0.682480    -0.988674
C      -2.108854     1.359610    -1.318342
C      -1.927816     2.825680    -1.715998
N      -1.044768     3.529343    -0.771455
C       0.302396     2.945307    -0.662661
C      -1.683836     4.005917     0.387070
C      -1.626082     3.242161     1.571633
C      -2.322871     3.613447     2.712216
C      -3.100530     4.760181     2.693964
C      -3.169707     5.570220     1.553576
C      -2.444017     5.239110     0.369754
C      -2.541073     6.196623    -0.696374
C      -3.347346     7.342623    -0.601366
C      -4.068502     7.600874     0.551733
C      -3.968928     6.723573     1.622788
Cl     -1.635449     6.096285    -2.177050
C      -0.665745    -0.702020    -0.965827
N       0.508022    -1.284264    -0.683726
N      -1.776263    -1.521935    -1.244809
C      -2.625353    -1.737157    -0.046834
C      -2.134087    -2.908200     0.837564
N      -1.981471    -4.131951     0.030976
C      -0.977587    -3.929564    -1.049113
C      -1.431768    -2.771070    -1.982648
C      -0.606984    -5.197268    -1.840574
C       0.683386    -5.037573    -2.526500
N       1.696183    -4.915424    -3.079373
C      -3.114624    -4.903533    -0.231807
O      -3.376781    -5.345042    -1.349003
C      -3.995359    -5.232629     0.931372
C      -5.237431    -5.701753     0.788554
F      -3.465288    -5.093615     2.163859
H       6.202944     0.930429    -1.125619
H       7.824914     0.678820    -0.503145
H       7.058666    -0.582708    -1.489273
H       8.101975    -0.889957     1.588181
H       7.633851    -2.081824     0.351872
H       6.427909    -1.629246     3.084925
H       6.696847    -3.154083     2.225920
H       4.558476    -3.004626     1.319690
H       4.309699    -1.550932     2.298440
H       5.198882    -1.849418    -0.571197
H       3.684106     0.376042     0.907114
H       3.971381     0.306924    -0.860028
H      -2.609202     0.843238    -2.145904
H      -2.765505     1.298797    -0.442847
H      -2.908544     3.309455    -1.802070
H      -1.470925     2.876553    -2.713294
H       0.834977     3.328863     0.216703
H       0.875723     3.272779    -1.539171
H      -1.051641     2.321369     1.613087
H      -2.268479     3.002565     3.609056
H      -3.648366     5.026040     3.596534
H      -3.400482     8.046367    -1.429015
H      -4.688132     8.490317     0.625097
H      -4.524399     6.955943     2.530471
H      -3.638377    -1.962316    -0.403477
H      -2.708849    -0.830793     0.564355
H      -2.844915    -3.044816     1.654407
H      -1.161048    -2.677633     1.286068
H      -0.069113    -3.630870    -0.511856
H      -2.336202    -3.078613    -2.522856
H      -0.679075    -2.561482    -2.753357
H      -0.540243    -6.053926    -1.159172
H      -1.367599    -5.438329    -2.590203
H      -5.830443    -5.954158     1.659422
H      -5.674899    -5.851146    -0.193226
