66
3D optimized structure of Avapritinib
C       5.240312    -2.717174     3.194916
C       5.348795    -1.319069     2.562952
C       6.650112    -1.290670     1.740201
N       4.160277    -0.983213     1.738548
C       2.903574    -0.978950     2.485313
C       1.710788    -0.999216     1.519157
C       1.937664    -0.160750     0.235445
C       3.013184     0.907365     0.526980
C       4.332426     0.284275     1.004111
C       2.425638    -1.028317    -0.872207
N       2.766077    -1.702741    -1.754612
C       0.600533     0.472845    -0.181022
N       0.458648     1.810118    -0.040137
C      -0.713659     2.376507    -0.362672
N      -1.762942     1.680547    -0.817756
C      -1.616858     0.351294    -0.949467
C      -0.449085    -0.307066    -0.633416
C      -2.799660    -0.366242    -1.416840
C      -3.214136    -1.663747    -1.165446
C      -4.439470    -1.853104    -1.856968
N      -4.763128    -0.730501    -2.516596
N      -3.771084     0.139795    -2.246302
C      -3.818521     1.442498    -2.871796
C      -5.298510    -3.042502    -1.915770
C      -5.020894    -4.204996    -1.181181
C      -5.846583    -5.326146    -1.249214
C      -6.969697    -5.293228    -2.061226
C      -7.279596    -4.161570    -2.803371
C      -6.447143    -3.040768    -2.730473
F      -7.766605    -6.367021    -2.130059
F      -3.947715    -4.281468    -0.379519
N      -0.934707     3.742717    -0.219093
C      -0.122459     4.826207     0.132567
C      -0.718329     6.076455     0.333821
C       0.070281     7.155473     0.705346
N       1.401560     7.079490     0.892838
C       1.962615     5.868974     0.701270
C       1.253462     4.734905     0.331533
H       5.006892    -3.477414     2.441119
H       6.183253    -3.003003     3.675012
H       4.475384    -2.757092     3.975739
H       5.448214    -0.585794     3.374343
H       6.890224    -0.282398     1.388253
H       6.584439    -1.953401     0.869943
H       7.501552    -1.619049     2.347076
H       2.791526    -1.858447     3.125642
H       2.848809    -0.105424     3.148371
H       0.842468    -0.628683     2.081430
H       1.476115    -2.040225     1.255573
H       2.654188     1.589859     1.310483
H       3.210051     1.528471    -0.357365
H       4.962479     0.099084     0.125828
H       4.846778     1.032986     1.620809
H      -0.361000    -1.381444    -0.743269
H      -2.698069    -2.381266    -0.543682
H      -4.565642     1.433119    -3.670638
H      -2.840309     1.667737    -3.303195
H      -4.100011     2.178323    -2.114967
H      -5.613186    -6.213824    -0.672897
H      -8.163463    -4.153505    -3.433819
H      -6.700703    -2.158962    -3.317562
H      -1.893201     3.948528    -0.460160
H      -1.786144     6.219477     0.209868
H      -0.365596     8.136991     0.867917
H       3.036923     5.826986     0.856200
H       1.792863     3.807362     0.194092
