53
3D optimized structure of Belumosudil
C       8.092556     1.499443    -0.624914
C       7.583160     0.861134     0.665285
C       8.521668    -0.250279     1.124574
N       6.237876     0.337300     0.476886
C       5.123294     1.146238     0.569831
O       5.169473     2.328049     0.891156
C       3.812673     0.500464     0.284963
C       3.680998    -0.548612    -0.629549
C       2.423885    -1.121472    -0.860867
C       1.273235    -0.641657    -0.214377
C       1.427463     0.394806     0.713307
C       2.678962     0.975873     0.948587
N       0.043595    -1.303553    -0.426481
C      -1.275380    -0.794109    -0.270907
N      -1.453038     0.539108    -0.165219
C      -2.713501     1.005747    -0.063285
C      -3.858285     0.215690    -0.063595
C      -3.681107    -1.184297    -0.166574
C      -2.365381    -1.707175    -0.262800
C      -2.202552    -3.114402    -0.335110
C      -3.293295    -3.983683    -0.336979
C      -4.578132    -3.470833    -0.262146
C      -4.768712    -2.091641    -0.175496
C      -5.171718     0.862920     0.047271
C      -5.789613     1.020287     1.298072
C      -7.037465     1.637975     1.401696
C      -7.672312     2.103647     0.257156
C      -7.080830     1.962557    -0.993328
C      -5.832078     1.343364    -1.095802
O      -8.888935     2.700255     0.404560
H       9.100650     1.904542    -0.488910
H       8.123828     0.769999    -1.441999
H       7.439945     2.319920    -0.942054
H       7.544098     1.631839     1.444358
H       9.530502     0.136954     1.300833
H       8.587670    -1.049990     0.378385
H       8.162674    -0.698801     2.057361
H       6.131145    -0.641236     0.251322
H       4.534530    -0.918567    -1.188806
H       2.350413    -1.944628    -1.567376
H       0.571540     0.768342     1.269868
H       2.763452     1.794365     1.660620
H       0.063780    -1.867747    -1.268957
H      -2.783317     2.088389     0.020678
H      -1.206960    -3.552102    -0.371160
H      -3.135348    -5.057747    -0.389658
H      -5.435684    -4.138796    -0.261205
H      -5.792905    -1.727218    -0.109256
H      -5.300342     0.659051     2.200721
H      -7.510624     1.755832     2.372514
H      -7.569734     2.323506    -1.892583
H      -5.373271     1.232817    -2.076803
H      -9.202547     2.988134    -0.468352
