67
3D optimized structure of BI-2852
C       8.530696     0.655996    -1.423478
N       7.940229    -0.054986    -0.319309
C       6.671118     0.093549     0.157866
C       6.578083    -0.776020     1.229010
N       7.768262    -1.462388     1.376492
C       8.563975    -1.001246     0.438394
C       5.433419    -1.054730     2.143007
N       4.734891     0.166709     2.530631
C       5.107725     0.966276     3.584813
C       4.203402     1.997986     3.676128
C       3.240494     1.822367     2.645914
C       3.590918     0.669712     1.937564
C       2.835491     0.215162     0.842907
C       1.697734     0.946055     0.457702
C       1.333986     2.094736     1.169249
C       2.095385     2.542187     2.255415
C       0.854176     0.469319    -0.703671
N       0.078856    -0.708092    -0.322004
C      -0.812729    -1.174257    -1.372391
C      -2.016878    -0.301111    -1.501434
C      -3.146425    -0.167722    -0.693742
C      -3.966939     0.848399    -1.308110
C      -5.203070     1.453121    -0.989892
C      -5.738559     2.435830    -1.831213
C      -5.064427     2.826169    -2.982980
C      -3.839957     2.248762    -3.324572
C      -3.320187     1.267991    -2.470259
N      -2.154134     0.553202    -2.566619
C      -3.401953    -0.941904     0.560483
C      -4.641508    -1.763440     0.387099
C      -5.551403    -1.436767     1.398541
C      -6.783238    -2.048936     1.528494
C      -7.104188    -3.037438     0.597466
C      -6.197268    -3.375136    -0.419169
C      -4.953833    -2.749874    -0.536106
O      -6.579139    -4.348585    -1.296752
C      -4.962867    -0.362874     2.209878
O      -5.481352     0.175070     3.166460
N      -3.732171    -0.078995     1.662513
H       7.755262     1.211731    -1.956785
H       8.995329    -0.067999    -2.097787
H       9.280265     1.345206    -1.026705
H       5.961370     0.790299    -0.268048
H       9.586022    -1.314578     0.268852
H       4.716706    -1.733434     1.670865
H       5.781621    -1.533005     3.065856
H       5.984877     0.735645     4.176029
H       4.228091     2.794156     4.408125
H       3.111436    -0.686397     0.303570
H       0.447462     2.658628     0.886255
H       1.800930     3.436907     2.796178
H       1.518024     0.234986    -1.545208
H       0.204209     1.289072    -1.031291
H      -0.450848    -0.489434     0.518880
H      -1.143334    -2.188602    -1.119085
H      -0.278989    -1.265222    -2.326366
H      -5.749854     1.172028    -0.095360
H      -6.690195     2.896430    -1.576964
H      -5.495201     3.591340    -3.624530
H      -3.314960     2.556303    -4.223066
H      -1.484300     0.663527    -3.315386
H      -2.560572    -1.571597     0.864457
H      -7.468982    -1.766815     2.319904
H      -8.062177    -3.548290     0.654641
H      -4.252518    -3.014053    -1.319216
H      -5.894168    -4.441413    -1.978935
H      -3.132121     0.640487     2.038710
