60
3D optimized structure of BI-2865
C       2.249854     0.583867    -2.522752
C       2.992401     0.697210    -1.189731
C       4.418481     0.082817    -1.283230
C       5.200690     0.167483     0.032032
C       6.658724    -0.023415    -0.367799
C       6.658868    -0.052598    -1.890355
N       5.383036     0.548339    -2.314608
C       5.509309     2.003666    -2.407810
O       3.075184     2.071003    -0.777141
C       1.974181     2.566839    -0.109750
N       0.946509     1.760001     0.187806
C      -0.088353     2.331421     0.835572
N      -0.138394     3.629697     1.207872
C       0.925186     4.385601     0.885243
C       2.021954     3.900187     0.219150
C      -1.235677     1.469382     1.164711
N      -2.334602     1.890575     1.821417
O      -3.140418     0.760935     1.894758
C      -2.461518    -0.249274     1.276946
N      -1.283182     0.121209     0.832848
C      -3.137174    -1.596779     1.218993
C      -3.087215    -2.204987     2.662388
C      -4.042970    -3.389665     2.855722
C      -5.498684    -2.966222     2.641357
C      -5.626441    -2.137021     1.401112
C      -4.593903    -1.491806     0.739026
C      -5.099910    -0.796482    -0.424234
C      -6.471043    -0.918514    -0.565454
S      -7.142431    -1.879176     0.679731
N      -7.276394    -0.400748    -1.521363
C      -4.306722    -0.053559    -1.362490
N      -3.670127     0.547341    -2.124609
C      -2.356522    -2.527034     0.259699
H       2.707801     1.208767    -3.295265
H       2.229721    -0.451813    -2.875978
H       1.215010     0.927494    -2.424066
H       2.466957     0.097350    -0.434200
H       4.261353    -0.985702    -1.497840
H       4.877899    -0.603646     0.739592
H       5.081198     1.139531     0.523657
H       7.069654    -0.950519     0.045009
H       7.261716     0.810082     0.009647
H       6.683884    -1.094066    -2.235282
H       7.540302     0.437904    -2.318322
H       4.592941     2.455876    -2.797124
H       6.294037     2.266086    -3.127141
H       5.757940     2.481123    -1.453974
H       0.865218     5.427039     1.187768
H       2.867351     4.523530    -0.034080
H      -2.063246    -2.517804     2.905419
H      -3.350754    -1.438841     3.405815
H      -3.929379    -3.796143     3.867344
H      -3.782183    -4.197346     2.161791
H      -5.836395    -2.373404     3.500558
H      -6.131294    -3.859664     2.587374
H      -6.966818     0.369349    -2.110205
H      -8.280858    -0.403890    -1.362349
H      -2.841806    -3.503866     0.155863
H      -1.332731    -2.698305     0.613350
H      -2.280214    -2.099413    -0.747008
