42
3D optimized structure of Binimetinib
C      -1.151422     5.076861    -0.375237
N       0.043718     4.337913    -0.054304
C       1.294247     4.870272     0.066817
N       2.180313     3.952207     0.373920
C       1.476830     2.769571     0.454314
C       0.126476     2.986658     0.184727
C      -0.823159     1.958431     0.200856
C      -0.363437     0.657555     0.501892
C       0.993031     0.393618     0.801359
C       1.909666     1.466799     0.762018
F       3.203609     1.255105     1.057577
N       1.429988    -0.926589     1.084187
C       2.501707    -1.653087     0.523182
C       3.173629    -1.291338    -0.655698
C       4.256918    -2.024912    -1.136739
C       4.689359    -3.142945    -0.433086
C       4.044719    -3.530602     0.739258
C       2.958523    -2.787119     1.212635
Br      6.156115    -4.147286    -1.074409
F       2.749988    -0.253360    -1.394356
C      -1.348244    -0.463223     0.516942
O      -1.216740    -1.380604     1.322996
N      -2.346618    -0.387487    -0.439192
O      -3.029897    -1.617498    -0.628944
C      -4.301993    -1.534239     0.029178
C      -4.993177    -2.885932    -0.101374
O      -5.272409    -3.166594    -1.472918
H      -1.573646     4.669563    -1.297407
H      -0.904703     6.132287    -0.516083
H      -1.857916     4.969131     0.451685
H       1.507282     5.922453    -0.074798
H      -1.871428     2.166101     0.012741
H       0.668857    -1.534156     1.408244
H       4.740024    -1.711061    -2.055950
H       4.380252    -4.401372     1.296803
H       2.475643    -3.089009     2.139798
H      -2.135206     0.098219    -1.305324
H      -4.160400    -1.289029     1.087491
H      -4.896924    -0.753938    -0.458697
H      -4.360008    -3.692240     0.282132
H      -5.941275    -2.887824     0.443560
H      -4.412293    -3.131302    -1.931745
