47
3D optimized structure of Capecitabine
C       5.785616    -2.860076     0.011709
C       6.736756    -1.678513     0.119129
C       6.517730    -0.828242     1.372807
C       5.125663    -0.211785     1.517726
C       4.751641     0.730560     0.376991
O       3.491915     1.365745     0.659717
C       2.379494     0.671957     0.296827
O       2.398691    -0.416189    -0.251133
N       1.282259     1.434157     0.620039
C      -0.071121     1.230857     0.532965
N      -0.780463     2.279675     0.790679
C      -2.151358     2.204403     0.709324
O      -2.844656     3.196212     0.928345
N      -2.741228     0.988966     0.343401
C      -1.967844    -0.131975     0.105717
C      -0.640584    -0.079605     0.181923
F       0.125986    -1.165707     0.028261
C      -4.206954     0.939531     0.299752
C      -4.814691     1.828078    -0.805318
C      -6.106332     1.095137    -1.112972
C      -5.718990    -0.366989    -0.931722
O      -4.660669    -0.405462     0.049700
C      -5.187445    -0.999189    -2.211293
O      -7.097820     1.462637    -0.142905
O      -5.111750     3.171127    -0.415381
H       4.752451    -2.531109    -0.133470
H       6.057486    -3.484149    -0.845679
H       5.828789    -3.482581     0.910937
H       7.765063    -2.059624     0.137764
H       6.654484    -1.059683    -0.781005
H       7.265376    -0.025402     1.383115
H       6.716837    -1.444891     2.258212
H       5.083842     0.346421     2.462000
H       4.368954    -0.997925     1.620311
H       4.717068     0.222370    -0.592880
H       5.495237     1.530472     0.293185
H       1.528062     2.357364     0.946879
H      -2.462953    -1.069385    -0.123904
H      -4.577856     1.243743     1.287043
H      -4.165716     1.851716    -1.688514
H      -6.516624     1.330829    -2.099095
H      -6.552733    -0.962236    -0.544291
H      -5.948854    -1.000113    -2.996926
H      -4.879801    -2.033425    -2.022382
H      -4.300373    -0.474344    -2.581667
H      -6.997028     2.432356    -0.034673
H      -4.325554     3.510610     0.070755
