44
3D optimized structure of Capivasertib
C       3.037238    -2.791141    -1.915238
C       2.807201    -1.346679    -2.397436
C       1.914306    -1.131339    -1.119497
C       1.691823    -2.684908    -1.174407
C       2.646479    -0.477061     0.161415
C       2.684538    -1.091144     1.431005
C       3.316174    -0.492707     2.528011
C       3.926668     0.747410     2.383771
C       3.908193     1.392343     1.154381
C       3.275288     0.785263     0.065015
Cl      4.700267     1.485116     3.730539
C       0.574517    -0.342840    -1.413990
N       0.272485     0.221634    -2.562852
C      -0.957881     0.794740    -2.375979
C      -1.414595     0.583404    -1.092519
N      -0.419749    -0.148034    -0.491565
C      -2.673030     1.005577    -0.402061
C      -3.516862    -0.201930     0.026599
C      -4.761666     0.245676     0.788750
N      -4.406489     1.072715     1.941948
C      -3.674807     2.272481     1.534571
C      -2.384594     1.910472     0.803113
H       3.901865    -2.905362    -1.251446
H       3.089792    -3.551381    -2.698505
H       2.277740    -1.295730    -3.356695
H       3.713155    -0.738803    -2.475082
H       1.639922    -3.227541    -0.227944
H       0.837678    -3.001841    -1.787396
H       2.214591    -2.060550     1.580727
H       3.326063    -1.002218     3.487995
H       4.377818     2.364359     1.030960
H       3.260114     1.310222    -0.890976
H      -1.450234     1.333629    -3.175349
H      -0.403151    -0.467886     0.467236
H      -3.267088     1.588431    -1.120889
H      -3.815838    -0.785560    -0.853005
H      -2.928080    -0.876656     0.662604
H      -5.303466    -0.638855     1.141086
H      -5.440670     0.793338     0.123831
H      -5.258369     1.350103     2.430732
H      -4.308019     2.906174     0.901659
H      -3.428498     2.857039     2.427716
H      -1.879494     2.827449     0.474889
H      -1.701336     1.412590     1.504276
