51
3D optimized structure of Cobimetinib
C      -1.342229     2.188739    -0.671799
C      -2.606604     2.929304    -0.260924
C      -3.845083     2.098182    -0.572807
N      -3.807050     0.776886     0.065852
C      -2.598388     0.009827    -0.327431
C      -1.312942     0.803868    -0.033546
C      -2.627641    -1.392603     0.352760
C      -1.473192    -2.340647    -0.071503
N      -0.899619    -2.158258     1.259781
C      -2.098460    -1.531087     1.808924
C       0.395835    -1.851050     1.610734
O       0.686426    -1.154071     2.580385
C       1.484925    -2.366375     0.742011
C       2.568052    -1.521717     0.413231
C       3.557022    -2.033198    -0.443032
C       3.489341    -3.339532    -0.920458
C       2.435784    -4.173992    -0.565613
C       1.430374    -3.689965     0.270063
F       4.451140    -3.812322    -1.725282
F       4.605232    -1.270063    -0.793807
N       2.618871    -0.182779     0.874965
C       2.643566     1.006861     0.112046
C       2.475273     1.063371    -1.280867
C       2.544079     2.267841    -1.980029
C       2.792917     3.447701    -1.286755
C       2.973508     3.425243     0.094779
C       2.902364     2.210604     0.785578
I       2.884673     5.250139    -2.313619
F       2.173710    -0.041181    -1.981729
O      -3.958038    -1.968523     0.158522
H      -1.305420     2.092759    -1.763743
H      -0.459016     2.760807    -0.368032
H      -2.570828     3.153666     0.812555
H      -2.660956     3.888766    -0.787408
H      -4.734172     2.631147    -0.218415
H      -3.955462     1.981922    -1.658154
H      -4.620542     0.262341    -0.280480
H      -2.655734    -0.155070    -1.412926
H      -1.166328     0.930083     1.044656
H      -0.438837     0.264236    -0.410603
H      -1.768013    -3.379218    -0.253215
H      -0.849047    -1.991512    -0.898178
H      -1.931149    -0.606220     2.364505
H      -2.661709    -2.224703     2.442505
H       2.408225    -5.192937    -0.940170
H       0.612550    -4.347296     0.557582
H       2.094403    -0.062617     1.749773
H       2.394006     2.257499    -3.054720
H       3.175187     4.338549     0.649431
H       3.061559     2.206649     1.862173
H      -4.512560    -1.460054     0.778974
