23
3D optimized structure of Dacarbazine
C      -2.705685     0.946356     0.844057
N      -2.553974    -0.423504     0.371834
C      -3.460266    -1.414654     0.921780
N      -1.299365    -0.921377     0.096925
N      -0.462140    -0.041222    -0.175309
C       0.806080    -0.564398    -0.468460
C       1.914838     0.234784    -0.684386
N       2.923470    -0.662782    -0.955930
C       2.413662    -1.923445    -0.865956
N       1.139898    -1.900946    -0.560901
C       2.032608     1.662764    -0.684117
O       1.110844     2.459817    -0.811517
N       3.303143     2.142605    -0.502001
H      -3.768473     1.206464     0.847302
H      -2.192049     1.644052     0.176887
H      -2.306255     1.024002     1.859214
H      -4.490764    -1.073061     0.790403
H      -3.244449    -1.551028     1.985272
H      -3.333541    -2.363318     0.391495
H       3.868517    -0.424628    -1.221239
H       3.008729    -2.810926    -1.037475
H       3.966377     1.608904     0.039843
H       3.328795     3.145541    -0.357720
