68
3D optimized structure of Doxorubicin
C      -4.415367    -2.555148    -0.728049
C      -4.699656    -1.443437     0.275387
C      -4.682271    -1.906620     1.749945
C      -4.307106    -0.721359     2.655815
C      -2.936787    -0.153698     2.261153
C      -2.619226    -0.388333     0.780804
O      -3.821418    -0.332640     0.021715
O      -1.731552     0.653125     0.364693
C      -1.246477     0.450668    -0.971958
C      -1.915515     1.482404    -1.882357
C      -1.473784     2.907708    -1.531104
C       0.048569     3.054530    -1.682775
C       0.859383     1.864989    -1.196111
C       0.256851     0.624988    -0.908144
C       1.070443    -0.450168    -0.501380
C       2.467189    -0.315698    -0.381726
C       3.057306     0.907463    -0.676964
C       2.256176     1.986997    -1.087636
O       2.796008     3.208578    -1.408712
C       4.517648     1.060781    -0.562599
O       5.034114     2.142042    -0.832931
C       5.350508    -0.073845    -0.127061
C       4.777621    -1.311789     0.178114
C       3.301908    -1.460988     0.050915
O       2.722406    -2.515814     0.292432
C       5.610324    -2.375167     0.593252
C       6.994167    -2.166691     0.690223
C       7.553499    -0.927093     0.382299
C       6.734826     0.118629    -0.025718
O       5.015094    -3.571810     0.885524
C       5.830091    -4.661579     1.293905
O       0.434593    -1.638586    -0.231395
C      -2.199689     3.868242    -2.489120
O      -1.781532     4.125931    -3.623720
C      -3.515814     4.473490    -2.009401
O      -4.221741     5.095687    -3.078185
O      -1.840927     3.258461    -0.190978
N      -4.280444    -1.142980     4.069886
O      -3.727867    -2.953548     1.972823
H      -4.518450    -2.175344    -1.750474
H      -3.389477    -2.927381    -0.640604
H      -5.106836    -3.392832    -0.596617
H      -5.702210    -1.051082     0.065649
H      -5.663260    -2.318501     2.014193
H      -5.063997     0.065254     2.544048
H      -2.122064    -0.588343     2.855948
H      -2.918830     0.918949     2.496971
H      -2.121417    -1.356494     0.649317
H      -1.493065    -0.548702    -1.353783
H      -1.673641     1.263771    -2.931028
H      -3.004426     1.403456    -1.777952
H       0.368232     3.949371    -1.132745
H       0.316759     3.197718    -2.737264
H       3.771789     3.167208    -1.287969
H       7.670771    -2.955575     1.005705
H       8.628404    -0.778510     0.461490
H       7.180025     1.083661    -0.264045
H       5.175399    -5.519961     1.472635
H       6.347372    -4.437010     2.232335
H       6.538005    -4.941582     0.507036
H       1.110777    -2.299983     0.048500
H      -4.156063     3.689953    -1.596781
H      -3.307074     5.229583    -1.248135
H      -3.543550     5.341756    -3.739379
H      -1.793306     2.440324     0.349665
H      -3.996240    -0.350508     4.649143
H      -5.227903    -1.376748     4.371496
H      -3.577273    -2.950172     2.941785
