52
3D optimized structure of Erlotinib
C      -1.256560    -5.654341     0.471851
O      -0.585388    -4.483108     0.918749
C      -1.421344    -3.325622     0.920957
C      -1.612177    -2.744691    -0.480857
O      -2.272967    -1.482104    -0.428485
C      -1.525643    -0.338269    -0.317490
C      -2.228457     0.870980    -0.434381
C      -1.536243     2.082648    -0.331628
C      -0.166765     2.132175    -0.105281
C       0.541930     0.933173     0.031935
C      -0.149917    -0.300593    -0.085250
C       1.925678     1.068214     0.272529
N       2.520142     2.272425     0.339410
C       1.737612     3.342322     0.185760
N       0.417722     3.330006    -0.025665
N       2.704747    -0.105584     0.464428
C       4.112151    -0.241655     0.451356
C       4.693327    -1.333982     1.116088
C       6.073302    -1.551877     1.080119
C       6.893952    -0.691986     0.354312
C       6.331842     0.375990    -0.344356
C       4.949042     0.589077    -0.304666
C       7.169041     1.247597    -1.111086
C       7.870661     1.979366    -1.754732
O      -3.579532     0.762253    -0.650318
C      -4.333573     1.964430    -0.793614
C      -5.793425     1.589995    -1.048352
O      -6.617755     2.738848    -1.246532
C      -7.037729     3.338034    -0.027950
H      -1.544228    -5.561947    -0.578820
H      -0.568146    -6.498669     0.565830
H      -2.137009    -5.854060     1.090026
H      -0.936622    -2.587146     1.567901
H      -2.388199    -3.543304     1.391289
H      -0.680413    -2.715517    -1.057976
H      -2.269313    -3.411327    -1.051134
H      -2.050322     3.034120    -0.427976
H       0.420402    -1.219129     0.003596
H       2.218029     4.313148     0.240961
H       2.289314    -0.657513     1.207935
H       4.073649    -2.030300     1.675856
H       6.505036    -2.395348     1.612285
H       7.966799    -0.865113     0.326632
H       4.527603     1.410289    -0.878271
H       8.490480     2.629993    -2.326140
H      -3.965554     2.556622    -1.640429
H      -4.259439     2.566426     0.118835
H      -5.849380     0.987557    -1.962418
H      -6.188612     0.956368    -0.244676
H      -7.605375     2.623555     0.575882
H      -6.182535     3.715692     0.538633
H      -7.689838     4.181885    -0.269409
