74
3D optimized structure of Etoposide
C       7.284019    -2.882995    -3.547502
C       6.065283    -2.730944    -2.654512
O       4.913496    -2.632961    -3.491065
C       3.723024    -2.461878    -2.724260
C       3.836923    -1.210058    -1.861301
C       5.105870    -1.343427    -1.023659
O       6.243128    -1.551400    -1.864396
C       5.285725    -0.061118    -0.218170
C       4.032628     0.227493     0.614352
C       2.756067     0.160085    -0.257963
O       2.697322    -1.053275    -1.021809
O       1.619928     0.201516     0.611806
C       0.382233     0.352523    -0.082828
C      -0.540000    -0.802862     0.285320
C       0.030289    -2.198008     0.309410
O      -0.888705    -2.928545     1.138018
C      -1.488935    -2.056209     2.012152
O      -2.226941    -2.396991     2.921551
C      -1.013146    -0.664526     1.719554
C      -1.980346     0.510153     1.861897
C      -1.307985     1.768166     1.286898
C      -1.807103     3.027417     1.677201
C      -1.229407     4.155903     1.140145
C      -0.192940     4.080554     0.244057
C       0.330263     2.873102    -0.166031
C      -0.224124     1.686663     0.351808
O       0.229338     5.306565    -0.166707
C      -0.658677     6.162522     0.581900
O      -1.592355     5.438387     1.408990
C      -3.381181     0.264897     1.294799
C      -4.358821    -0.321762     2.115748
C      -5.637543    -0.590517     1.625403
C      -5.965675    -0.242620     0.303614
C      -5.022121     0.352737    -0.533505
C      -3.737224     0.593775    -0.025494
O      -5.161940     0.745455    -1.837049
C      -6.448438     0.641496    -2.429583
O      -7.239690    -0.526836    -0.121115
O      -6.655859    -1.181488     2.336386
C      -6.293678    -1.781321     3.577018
O       4.181456     1.523307     1.215360
O       6.415934    -0.179575     0.660560
H       7.196134    -3.769748    -4.183016
H       8.199720    -2.953367    -2.952098
H       7.388648    -2.014996    -4.208392
H       5.983097    -3.610621    -2.002985
H       3.535105    -3.356862    -2.118068
H       2.876668    -2.369734    -3.413318
H       3.922437    -0.347325    -2.536984
H       5.034897    -2.187088    -0.322596
H       5.510378     0.785916    -0.878501
H       3.954991    -0.491423     1.439756
H       2.724245     1.026128    -0.931439
H       0.521008     0.357384    -1.172330
H      -1.400377    -0.808839    -0.396358
H       1.024551    -2.275726     0.760125
H       0.054100    -2.647384    -0.687647
H      -0.154062    -0.501552     2.388540
H      -2.099023     0.694433     2.940281
H      -2.633378     3.118523     2.375400
H       1.157411     2.857560    -0.866768
H      -1.223413     6.783401    -0.123102
H      -0.056887     6.817355     1.222692
H      -4.094490    -0.572746     3.139482
H      -3.013833     1.060736    -0.691681
H      -6.752392    -0.404566    -2.534410
H      -7.189851     1.234848    -1.885044
H      -6.379696     1.059377    -3.439100
H      -7.676947    -0.936394     0.651445
H      -6.017245    -1.019418     4.312885
H      -7.172503    -2.309040     3.959908
H      -5.493796    -2.517988     3.446300
H       5.033067     1.488958     1.694117
H       7.161342    -0.463200     0.094887
