57
3D optimized structure of Futibatinib
C       7.459630    -1.777705    -2.588739
O       6.874849    -0.759310    -1.784228
C       5.531970    -0.873928    -1.507340
C       4.992743     0.140015    -0.699703
C       3.635532     0.106358    -0.383796
C       2.802163    -0.946992    -0.840406
C       3.352443    -1.955012    -1.642542
C       4.703347    -1.902720    -1.964401
N       2.632800    -2.972468    -2.120179
C       1.334703    -2.989976    -1.801694
N       0.694507    -2.091889    -1.050371
C       1.425096    -1.074725    -0.558155
N       0.799759    -0.096762     0.261060
C      -0.573297     0.119430     0.507474
C      -0.955282     0.810412     1.665468
C      -2.302266     1.101954     1.931121
C      -3.302500     0.729485     1.018875
C      -2.924195     0.069098    -0.151120
C      -1.575194    -0.217015    -0.405832
O      -4.590726     1.045395     1.361737
C      -5.639986     0.849960     0.408365
C      -6.227080    -0.568860     0.501259
C      -7.159848    -0.888294    -0.659104
C      -8.504463    -0.446788    -0.138830
C      -8.409055    -0.820909     1.322495
O      -7.033368    -0.676201     1.696144
C      -2.619533     1.794697     3.148170
C      -2.882289     2.373073     4.167396
N       5.872453     1.152754    -0.258969
C       5.613321     2.170547     0.624585
O       4.580475     2.354581     1.257984
C       6.764484     3.085284     0.863863
C       7.710962     3.393817    -0.032868
H       7.010788    -1.797539    -3.587209
H       8.521391    -1.540533    -2.706224
H       7.389150    -2.755284    -2.100661
H       3.195290     0.905239     0.204034
H       5.088967    -2.701709    -2.590143
H       0.744692    -3.812856    -2.190293
H       1.356664     0.050625     1.097679
H      -0.199737     1.127893     2.380918
H      -3.645506    -0.245997    -0.896087
H      -1.322224    -0.707303    -1.342093
H      -5.308233     1.106729    -0.603933
H      -6.413955     1.580850     0.671075
H      -5.426467    -1.311328     0.576334
H      -7.176727    -1.972702    -0.825066
H      -6.877508    -0.411935    -1.602064
H      -8.608106     0.639316    -0.244112
H      -9.348710    -0.921241    -0.645798
H      -8.690902    -1.867043     1.482937
H      -9.033531    -0.189489     1.960514
H      -3.127217     2.883271     5.069050
H       6.822056     1.041667    -0.597908
H       6.751198     3.565585     1.837884
H       7.724574     2.993120    -1.040599
H       8.491896     4.103358     0.224923
