29
3D optimized structure of Gemcitabine
C       3.313008     0.249601    -1.123778
C       2.105959    -0.199706    -1.462077
N       1.012845     0.009990    -0.649192
C       1.136445     0.682045     0.568011
O       0.163473     0.854397     1.299944
N       2.372065     1.156603     0.934622
C       3.393859     0.968258     0.161424
N       4.594969     1.463662     0.586665
C      -0.282218    -0.554826    -1.027699
C      -0.798618    -1.736309    -0.191091
C      -1.961610    -1.159071     0.594910
C      -2.451771    -0.072342    -0.358467
O      -1.286528     0.482925    -1.006721
C      -3.229185     1.048166     0.331969
O      -2.569247     1.521751     1.501721
O      -2.993596    -2.099147     0.902577
F      -1.220475    -2.717876    -1.035372
F       0.143887    -2.282942     0.605417
H       4.194684     0.119920    -1.733825
H       1.954903    -0.740495    -2.391553
H       5.421045     0.926631     0.354314
H       4.565317     1.736533     1.565243
H      -0.226232    -0.874408    -2.075808
H      -1.586806    -0.766283     1.543593
H      -3.085760    -0.500596    -1.145450
H      -3.358697     1.900612    -0.342312
H      -4.217558     0.692333     0.638220
H      -1.613573     1.627091     1.295550
H      -3.490585    -1.736519     1.659164
