81
3D optimized structure of HRS-4642
C      -3.960020    -1.186386    -2.072354
C      -4.763251    -0.693566    -0.876557
C      -5.518625    -1.810820    -0.187202
C      -6.744937    -2.147289    -0.798649
C      -7.576342    -3.127540    -0.297175
C      -7.197031    -3.802077     0.849820
C      -5.985914    -3.513845     1.495698
C      -5.705764    -4.249480     2.654339
C      -4.543502    -4.039000     3.368006
C      -3.625454    -3.105405     2.933624
C      -3.857011    -2.349581     1.758516
C      -5.081991    -2.517144     0.999523
C      -2.770922    -1.430730     1.400754
C      -1.731463    -1.798538     0.561113
C      -0.696903    -0.913434     0.290528
C      -0.699428     0.353306     0.892544
C       0.411612     1.177992     0.602011
N       1.375360     0.739909    -0.231269
C       1.264431    -0.470636    -0.773424
N       0.269901    -1.316429    -0.539031
O       2.232471    -0.949011    -1.621535
C       3.336387    -0.080186    -1.885254
C       4.640459    -0.644156    -1.265358
C       5.006684    -1.995337    -1.908212
C       5.987919    -1.614774    -2.998407
C       6.784287    -0.512621    -2.332788
N       5.784025     0.272622    -1.584529
C       6.330996     0.736918    -0.292360
C       5.925248    -0.304457     0.738313
C       4.553607    -0.734221     0.266827
F       6.776135    -1.363781     0.684946
N       0.627367     2.424509     1.167413
C       1.974439     3.042339     1.025338
C       1.945836     4.309840     0.122196
C       1.314247     4.054733    -1.246198
C      -0.185071     4.263748    -1.013577
C      -0.291481     4.661131     0.464788
C      -0.441447     3.432620     1.428221
C      -1.865487     2.893742     1.386785
O      -1.991046     1.840386     2.338032
C      -1.796673     0.632358     1.734847
N      -2.800369    -0.228506     2.008950
N       1.019986     5.318049     0.697035
F      -1.726125    -3.024940     0.009729
O      -4.339226    -4.778294     4.493367
F      -7.137891    -1.499784    -1.907130
H      -3.369713    -0.366794    -2.494262
H      -3.278950    -1.997664    -1.802798
H      -4.619218    -1.563255    -2.861866
H      -5.481314     0.061262    -1.225877
H      -4.135958    -0.133634    -0.187105
H      -8.512128    -3.353460    -0.796797
H      -7.866201    -4.567159     1.241168
H      -6.403737    -4.999449     3.022180
H      -2.708607    -2.944758     3.496934
H       3.178566     0.959437    -1.574613
H       3.437201    -0.038522    -2.977395
H       4.149506    -2.539723    -2.315972
H       5.508606    -2.656996    -1.191145
H       5.459508    -1.237057    -3.881647
H       6.614410    -2.457473    -3.304597
H       7.539488    -0.964082    -1.676833
H       7.302280     0.113227    -3.065856
H       7.412846     0.904726    -0.321171
H       5.851711     1.693827    -0.053071
H       5.924347     0.081318     1.761131
H       4.293698    -1.737080     0.619204
H       3.820870    -0.023141     0.662199
H       2.306110     3.336936     2.030152
H       2.742409     2.350927     0.661850
H       2.957121     4.719406     0.032927
H       1.538355     3.062784    -1.647347
H       1.672311     4.791879    -1.975551
H      -0.762468     3.370527    -1.268001
H      -0.540032     5.079505    -1.655129
H      -1.105913     5.373754     0.633480
H      -0.269180     3.787183     2.455036
H      -2.559860     3.682564     1.700423
H      -2.189988     2.592144     0.381222
H       1.070564     6.166760     0.131067
H      -3.504667    -4.500151     4.905807
