81
3D optimized structure of Irinotecan
C      -1.334055     1.389554    -3.288388
C      -1.569756    -0.056010    -2.875518
C      -2.180871    -0.160127    -1.498713
C      -3.558890    -0.254811    -1.361865
C      -4.652263    -0.279906    -2.390856
N      -5.863997    -0.381413    -1.573465
C      -5.558498    -0.421843    -0.228089
C      -6.516794    -0.515913     0.697721
C      -7.909506    -0.579139     0.271649
C      -8.216764    -0.542917    -1.038937
C      -7.138825    -0.430689    -2.074299
O      -7.411102    -0.377684    -3.268757
C      -9.614689    -0.589930    -1.545349
O     -10.588597    -1.038362    -0.578705
C     -10.272346    -1.299619     0.707335
O     -11.002613    -2.002686     1.407853
C      -9.009950    -0.635662     1.302283
C      -9.349825     0.784223     1.805127
C     -10.360904     0.825292     2.947291
O      -8.562048    -1.427095     2.411354
C      -4.109397    -0.341318    -0.088468
N      -3.433786    -0.337493     1.064034
C      -2.099946    -0.242592     0.953011
C      -1.412060    -0.143945    -0.298853
C      -0.003551    -0.032182    -0.279259
C       0.695028    -0.047691     0.927279
C       0.024211    -0.130633     2.136639
C      -1.366742    -0.232489     2.132042
O       2.086753     0.111911     0.968505
C       2.853210    -0.842662     0.300541
O       2.385304    -1.812622    -0.288083
N       4.220683    -0.577041     0.375465
C       4.757642     0.385731     1.324994
C       6.098794     0.956889     0.878725
C       7.122555    -0.149993     0.535597
C       6.477809    -1.062791    -0.529683
C       5.131868    -1.615820    -0.072353
N       8.413509     0.439216     0.087484
C       9.415916    -0.541526    -0.342189
C      10.593332     0.148966    -1.046512
C      11.006168     1.467536    -0.397070
C      10.507051     1.536244     1.034242
C       8.983650     1.361415     1.095601
H      -0.901338     1.429155    -4.293063
H      -2.271619     1.955650    -3.301205
H      -0.646514     1.897356    -2.604310
H      -2.224586    -0.536417    -3.612614
H      -0.634352    -0.624417    -2.923474
H      -4.693886     0.642231    -2.978486
H      -4.591001    -1.155259    -3.044654
H      -6.271433    -0.551666     1.755822
H      -9.693261    -1.283047    -2.389677
H      -9.928829     0.399915    -1.892914
H      -8.435986     1.271787     2.169655
H      -9.732584     1.398434     0.980002
H     -10.008206     0.261028     3.815813
H     -10.519649     1.860858     3.265865
H     -11.330263     0.422487     2.640049
H      -9.359768    -1.860445     2.777846
H       0.563191     0.060887    -1.200661
H       0.567987    -0.118416     3.075961
H      -1.896918    -0.304213     3.079470
H       4.055280     1.211689     1.475422
H       4.862260    -0.129550     2.287610
H       6.463740     1.604715     1.683083
H       5.942249     1.594586    -0.001772
H       7.304144    -0.752024     1.437036
H       7.113555    -1.923844    -0.757255
H       6.341140    -0.500264    -1.462575
H       4.681198    -2.187334    -0.891477
H       5.271443    -2.310115     0.765646
H       9.014842    -1.254906    -1.066893
H       9.771857    -1.128421     0.514516
H      11.446816    -0.540009    -1.052536
H      10.342280     0.338624    -2.097693
H      10.583288     2.303308    -0.968659
H      12.095163     1.581776    -0.433780
H      10.993095     0.749835     1.625759
H      10.788100     2.493306     1.488072
H       8.523710     2.346244     0.949656
H       8.739147     1.034104     2.114488
