66
3D optimized structure of JDQ-443
C      -4.624287     2.445444    -2.905546
C      -3.791800     2.406279    -1.649616
C      -4.056834     3.353920    -0.642121
C      -3.280789     3.308979     0.519612
C      -2.268897     2.378132     0.720883
C      -1.767841     2.684440     2.009006
N      -2.392465     3.718799     2.576209
N      -3.301526     4.078194     1.654548
C      -2.000162     1.427819    -0.286354
C      -2.769263     1.451977    -1.470406
Cl     -2.442544     0.303878    -2.736079
C      -0.954429     0.455435    -0.028902
C       0.402754     0.734620    -0.130124
N       1.031463    -0.458532     0.164841
N       0.169655    -1.463309     0.411153
C      -1.050540    -0.924871     0.302793
C      -2.248808    -1.742375     0.501200
C      -3.335360    -1.255924     1.248032
C      -4.480788    -2.059059     1.400056
C      -4.515530    -3.322261     0.817678
C      -3.442750    -3.839852     0.082110
C      -2.311970    -3.025823    -0.061023
N      -5.747509    -3.834461     1.146981
N      -6.504216    -3.006196     1.895280
C      -5.728451    -1.930598     2.048235
C      -6.263105    -5.131517     0.779699
C       2.479060    -0.781975     0.225362
C       3.409832     0.240850     0.915984
C       4.335386     0.080112    -0.269500
C       3.254710    -0.584988    -1.098743
C       5.047551     1.278287    -0.825312
N       6.241291     0.431840    -0.842597
C       5.636582    -0.655095    -0.076420
C       7.536405     0.858511    -0.949728
O       7.841880     1.995580    -1.295288
C       8.562081    -0.170401    -0.630479
C       9.862147     0.149751    -0.598711
C       1.066223     2.019918    -0.476360
H      -3.991233     2.637784    -3.777682
H      -5.160903     1.500465    -3.037940
H      -5.374535     3.242595    -2.864851
H      -4.840960     4.096967    -0.760452
H      -0.972236     2.190468     2.552721
H      -3.913312     4.859558     1.862688
H      -3.302743    -0.280524     1.721338
H      -3.473874    -4.828555    -0.363128
H      -1.462990    -3.403532    -0.630052
H      -6.100546    -1.094068     2.624787
H      -7.320147    -5.195213     1.051016
H      -5.691814    -5.891560     1.318155
H      -6.153102    -5.258321    -0.300137
H       2.639244    -1.791890     0.632711
H       3.807180    -0.095399     1.879782
H       3.024351     1.251973     1.059472
H       2.779972     0.057226    -1.846228
H       3.536646    -1.517598    -1.598786
H       4.744775     1.609492    -1.821759
H       5.145690     2.134984    -0.151977
H       5.724807    -1.628489    -0.565405
H       6.010712    -0.709168     0.950263
H       8.239941    -1.185007    -0.439643
H      10.615325    -0.597817    -0.375703
H      10.202017     1.162919    -0.798083
H       0.427141     2.625149    -1.128304
H       1.256474     2.602738     0.430361
H       2.006967     1.889299    -1.010174
