53
3D optimized structure of Larotrectinib
C      -1.776680     1.781922    -3.118115
C      -3.186921     1.900278    -2.574474
C      -3.336690     0.637357    -1.709278
N      -1.970164     0.337915    -1.265603
C      -1.008647     1.219190    -1.930132
C      -1.554547    -0.758859    -0.525869
N      -0.292283    -0.798388    -0.147845
C       0.126603    -1.870109     0.594500
C       1.354626    -2.183120     1.135375
C       1.161234    -3.413134     1.789366
N      -0.092831    -3.863782     1.681207
N      -0.725118    -2.911349     0.952211
C      -2.051199    -2.890421     0.554195
C      -2.520915    -1.868460    -0.171974
N       2.463862    -1.371600     0.989441
C       3.691601    -1.616670     1.547872
O       3.946826    -2.582012     2.265205
N       4.657504    -0.682591     1.240649
C       5.998409    -0.793246     1.784759
C       6.646923     0.544185     1.470759
C       5.996555     0.935277     0.147745
C       4.559113     0.438699     0.315774
O       6.052403     2.334945    -0.063929
C      -4.301634     0.891178    -0.574402
C      -5.656495     0.580047    -0.745327
C      -6.594187     0.812542     0.259491
C      -6.183611     1.376792     1.465150
C      -4.843494     1.702132     1.644874
C      -3.905029     1.470172     0.642235
F      -4.450262     2.252719     2.800229
F      -6.072666     0.043320    -1.901026
H      -1.371671     2.736082    -3.466059
H      -1.755401     1.072211    -3.953928
H      -3.940186     1.950316    -3.367258
H      -3.272265     2.817355    -1.977189
H      -3.681756    -0.194483    -2.336575
H      -0.114167     0.690204    -2.275858
H      -0.707372     2.017271    -1.242552
H       1.881701    -4.003393     2.341575
H      -2.652811    -3.734731     0.860335
H      -3.544614    -1.830318    -0.509546
H       2.295419    -0.512775     0.487538
H       5.972828    -1.011447     2.856642
H       6.505609    -1.614791     1.266391
H       6.408884     1.284016     2.245354
H       7.737066     0.481644     1.403664
H       6.482864     0.421579    -0.689852
H       4.127168     0.115639    -0.636753
H       3.905286     1.200756     0.754331
H       6.989787     2.596029    -0.053052
H      -7.635868     0.554999     0.094308
H      -6.895104     1.568141     2.262312
H      -2.867686     1.740767     0.823394
