57
3D optimized structure of Leucovorin
C       4.396121    -1.972789    -0.208225
C       4.014583    -1.028576    -1.373086
N       4.622706     0.332747    -1.264529
C       5.611527     0.563235    -0.287490
C       6.191767    -0.448420     0.409611
N       5.781706    -1.755189     0.176697
N       7.179557    -0.268422     1.344899
C       7.627259     0.922336     1.558939
N       7.140171     2.010399     0.918814
C       6.079772     1.939357     0.067765
O       5.529988     2.966238    -0.321138
N       8.614198     1.136492     2.462099
C       4.407613     1.205165    -2.325715
O       3.688643     0.976883    -3.294256
C       2.463123    -1.007901    -1.486829
N       1.868295    -0.273907    -0.361732
C       0.478743    -0.129660    -0.281406
C      -0.433291    -0.970188    -0.929064
C      -1.816056    -0.824709    -0.745462
C      -2.311684     0.149390     0.125767
C      -1.412967     0.981482     0.796307
C      -0.035581     0.828022     0.605105
C      -3.769660     0.344269     0.360514
O      -4.196643     1.417227     0.772749
N      -4.583422    -0.742099     0.126424
C      -6.010711    -0.704180     0.456888
C      -6.800410     0.019836    -0.645031
C      -8.107344     0.631405    -0.144780
C      -7.864486     1.942858     0.547284
O      -7.911406     3.046474     0.031178
O      -7.550655     1.794810     1.846483
C      -6.535305    -2.136445     0.629016
O      -7.684690    -2.468156     0.871088
O      -5.579628    -3.086875     0.483615
H       4.254423    -3.017506    -0.506246
H       3.765178    -1.798601     0.671856
H       4.415174    -1.459547    -2.301554
H       6.113115    -2.343119     0.938399
H       7.477960     2.931851     1.141371
H       8.785675     0.316145     3.036379
H       8.560472     1.986861     3.006486
H       4.975955     2.141227    -2.282418
H       2.109435    -2.046305    -1.491349
H       2.141664    -0.555341    -2.429386
H       2.325531     0.629953    -0.229316
H      -0.093734    -1.749573    -1.604028
H      -2.483440    -1.470228    -1.308312
H      -1.777549     1.747168     1.477925
H       0.640566     1.474221     1.160644
H      -4.175738    -1.667986     0.046490
H      -6.096953    -0.211666     1.429968
H      -6.190091     0.811615    -1.097930
H      -7.030339    -0.688264    -1.451837
H      -8.665227    -0.037413     0.517966
H      -8.766382     0.838777    -0.996523
H      -7.308453     2.700976     2.133641
H      -6.069074    -3.924351     0.635959
