55
3D optimized structure of Methotrexate
C       1.353294     2.024108    -3.436408
N       1.569667     0.945903    -2.472032
C       2.696756     0.039741    -2.763563
C       3.776743     0.073459    -1.702270
C       4.201441     1.264079    -1.139655
N       5.198009     1.335571    -0.222867
C       5.787173     0.196725     0.156250
C       5.360495    -1.011986    -0.407281
N       4.364687    -1.094091    -1.343540
C       6.040812    -2.125656     0.073109
N       7.022457    -2.063256     0.983311
C       7.350550    -0.854887     1.426770
N       6.758474     0.275392     1.059385
N       8.355000    -0.774430     2.366604
N       5.697739    -3.418100    -0.407102
C       0.518402     0.528572    -1.651214
C      -0.700275     1.230116    -1.583427
C      -1.759167     0.828939    -0.752321
C      -1.629549    -0.303541     0.049493
C      -0.425951    -1.004857     0.028104
C       0.622808    -0.592513    -0.808012
C      -2.714953    -0.774350     0.953957
O      -2.454791    -1.474752     1.925281
N      -3.996240    -0.403890     0.619782
C      -5.162786    -0.890942     1.354155
C      -5.315431    -0.228657     2.734336
C      -5.236914     1.297852     2.744109
C      -6.432578     1.937413     2.103146
O      -6.517186     2.290515     0.938435
O      -7.474979     2.051826     2.944060
C      -6.431439    -0.751920     0.503440
O      -7.577055    -0.968357     0.865174
O      -6.181187    -0.358608    -0.768603
H       2.281668     2.283745    -3.957830
H       1.026137     2.942957    -2.937923
H       0.617087     1.731100    -4.192628
H       2.340570    -0.987154    -2.916302
H       3.178206     0.316900    -3.710429
H       3.749408     2.214486    -1.404890
H       8.449838    -1.656294     2.851624
H       8.251127     0.060157     2.926630
H       4.701982    -3.552828    -0.238437
H       5.794054    -3.402210    -1.421201
H      -0.865169     2.124747    -2.177156
H      -2.659798     1.435964    -0.732143
H      -0.290142    -1.878120     0.663574
H       1.531964    -1.184934    -0.762647
H      -4.191419    -0.047553    -0.310997
H      -5.021041    -1.970365     1.494583
H      -6.259526    -0.550198     3.191882
H      -4.515986    -0.600371     3.387454
H      -4.334340     1.667649     2.246041
H      -5.173739     1.659533     3.777839
H      -8.199365     2.424323     2.399377
H      -7.075539    -0.256950    -1.159319
