42
3D optimized structure of Mitomycin C
C       4.706758     0.324465    -1.853169
C       3.338851    -0.148219    -1.451416
C       2.978814    -1.442958    -1.343869
C       1.565700    -1.812331    -0.943709
O       1.243699    -2.986490    -0.786592
C       0.619600    -0.725448    -0.731457
C       0.972222     0.550628    -0.870805
C       2.360253     0.957157    -1.202746
O       2.693592     2.136390    -1.267838
N      -0.090699     1.423080    -0.649389
C       0.058501     2.595297     0.235403
C      -0.980865     2.418515     1.309580
C      -1.768312     1.183236     1.034118
C      -1.305513     0.629690    -0.294659
C      -0.825904    -0.866170    -0.335812
C      -1.048067    -1.667933     0.946252
O      -2.456571    -1.716889     1.230322
C      -2.767391    -2.257047     2.428259
O      -1.986771    -2.686146     3.260608
N      -4.109966    -2.274274     2.585664
O      -2.334831     0.769248    -1.285012
C      -2.571175     2.082441    -1.764084
N      -0.916064     1.292298     2.234002
N       3.821775    -2.529345    -1.560542
H       5.382961    -0.494215    -2.115383
H       4.643660     0.977938    -2.730171
H       5.170254     0.885219    -1.034549
H       1.054415     2.668125     0.685124
H      -0.137323     3.506498    -0.338686
H      -1.461659     3.326479     1.639059
H      -2.836463     1.155655     1.190272
H      -1.355108    -1.381944    -1.149686
H      -0.491526    -1.246287     1.790214
H      -0.706870    -2.700027     0.806492
H      -4.690826    -2.092529     1.781849
H      -4.479737    -2.798948     3.364350
H      -3.432421     2.044089    -2.437398
H      -1.717610     2.451871    -2.339418
H      -2.812918     2.769575    -0.948801
H      -1.489932     1.458509     3.063334
H       4.764186    -2.391158    -1.207935
H       3.399283    -3.388046    -1.191932
