51
3D optimized structure of MRTX1719
C       1.549292    -3.513760    -3.321108
N       0.954927    -3.506153    -2.003273
C       0.609241    -2.411825    -1.237273
C       0.082934    -2.947516    -0.065458
C       0.193077    -4.344702    -0.222985
N       0.709733    -4.686029    -1.402713
C      -0.425465    -2.179229     1.056514
C      -1.357729    -1.151126     0.851135
C      -1.792041    -0.362739     1.922645
C      -1.315663    -0.623659     3.203658
C      -0.409281    -1.666437     3.425445
C       0.035817    -2.440861     2.351650
C      -1.765872     0.222013     4.320858
O      -1.389287     0.018842     5.469288
N      -2.623058     1.245696     3.997177
N      -3.094990     1.536763     2.754267
C      -2.723064     0.781737     1.761443
C      -3.262071     1.132594     0.376870
N      -2.215586     1.828230    -0.383322
C       0.793665    -1.012370    -1.651028
C       1.680582    -0.145690    -0.983023
C       1.736016     1.204679    -1.362776
C       0.966467     1.696920    -2.418192
C       0.101190     0.838397    -3.085434
C       0.014223    -0.500414    -2.702786
F      -0.838869    -1.316388    -3.344752
Cl     -0.865924     1.446558    -4.372624
O       2.589647     2.071263    -0.725115
C       1.906164     2.818480     0.308293
C       2.740442     3.880813     0.970609
C       1.648748     4.271865     0.018590
C       2.529530    -0.615080     0.076750
N       3.213309    -0.996485     0.933909
H       0.747396    -3.412080    -4.055934
H       2.080068    -4.457933    -3.470844
H       2.258316    -2.686720    -3.402555
H      -0.092358    -5.126848     0.469119
H      -1.724061    -0.966443    -0.154359
H      -0.032283    -1.863679     4.427526
H       0.770096    -3.224185     2.533778
H      -2.940950     1.841036     4.756095
H      -3.591055     0.231596    -0.148180
H      -4.134567     1.786785     0.483055
H      -2.618667     2.132804    -1.271298
H      -1.997160     2.693963     0.116704
H       1.043330     2.741905    -2.705632
H       1.207941     2.295363     0.958357
H       2.585324     4.057795     2.028457
H       3.768345     3.997029     0.646957
H       1.941942     4.666381    -0.946898
H       0.752238     4.718846     0.431159
