75
3D optimized structure of MRTX1133
C      -3.014723    -1.305425     2.383256
C      -3.684349    -2.030915     1.698213
C      -4.511898    -2.932221     0.943128
C      -5.244948    -3.858721     1.701431
C      -6.095184    -4.771495     1.105319
C      -6.229887    -4.766041    -0.275339
C      -5.515746    -3.856630    -1.072360
C      -5.717588    -3.913085    -2.459480
C      -5.051811    -3.043201    -3.304767
C      -4.169862    -2.112388    -2.792714
C      -3.926202    -2.028596    -1.405141
C      -4.617668    -2.906123    -0.490707
C      -2.944090    -1.021386    -0.988341
N      -3.415042     0.242656    -0.884109
C      -2.524069     1.193113    -0.524819
C      -1.162493     0.961593    -0.269972
C      -0.697144    -0.348525    -0.410243
C      -1.604144    -1.335482    -0.778041
F      -1.185114    -2.605069    -0.927278
N       0.586398    -0.672397    -0.198649
C       1.417332     0.313519     0.152926
N       1.073475     1.588946     0.326994
C      -0.209421     1.921699     0.114582
N      -0.485407     3.263122     0.309823
C      -1.251346     3.624051     1.513215
C      -1.339064     5.169678     1.669830
C       0.047306     5.818028     1.711820
C       0.382133     6.095713     0.245115
C      -0.837192     5.584849    -0.527173
C      -0.699972     4.079469    -0.895834
N      -1.938781     5.774025     0.452110
O       2.743256     0.038778     0.397341
C       3.099730    -1.320070     0.135861
C       4.612488    -1.543026     0.392716
C       4.965668    -3.030236     0.226738
C       6.302375    -3.018416    -0.491331
C       6.174699    -1.813830    -1.403947
N       5.441590    -0.811642    -0.620036
C       6.351623     0.082820     0.119970
C       5.653638     0.357756     1.436776
C       5.045184    -0.989001     1.760794
F       6.546560     0.705255     2.395137
O      -5.234379    -3.073769    -4.654377
F      -5.139069    -3.879561     3.040222
H      -2.424052    -0.669220     3.000155
H      -6.648583    -5.474506     1.719263
H      -6.908644    -5.487588    -0.727994
H      -6.406053    -4.643010    -2.878138
H      -3.659958    -1.438141    -3.478964
H      -2.956000     2.187017    -0.444739
H      -0.763124     3.203433     2.401272
H      -2.267641     3.216937     1.469305
H      -1.926261     5.415662     2.560438
H       0.012493     6.765658     2.262667
H       0.799417     5.181183     2.188776
H       0.505898     7.175442     0.098395
H       1.313273     5.607598    -0.060575
H      -1.013813     6.170582    -1.435033
H       0.148136     3.956886    -1.581149
H      -1.604768     3.763040    -1.427009
H      -2.056337     6.775372     0.614280
H       2.531982    -1.980828     0.805179
H       2.865462    -1.578270    -0.906221
H       5.018870    -3.573438     1.175640
H       4.230862    -3.541458    -0.408365
H       7.120077    -2.880923     0.225775
H       6.481532    -3.944671    -1.044854
H       5.568748    -2.077712    -2.279386
H       7.141501    -1.459605    -1.777548
H       7.328283    -0.376955     0.319732
H       6.532427     1.006731    -0.438267
H       4.900895     1.147319     1.349633
H       4.220428    -0.894739     2.474901
H       5.806284    -1.621276     2.235575
H      -5.888195    -3.758337    -4.871405
