113
3D optimized structure of Paclitaxel
C       1.213372    -3.089413    -1.377377
C       0.220327    -2.850075    -0.255270
C      -1.019061    -3.421963    -0.175456
C      -1.667306    -3.996727    -1.428040
C      -1.756583    -2.827315    -2.431751
O      -0.987573    -2.860060    -3.408890
C      -2.726959    -1.593913    -2.230174
C      -2.575556    -0.867935    -3.632698
C      -3.419722     0.369931    -3.788525
C      -2.952671     1.389872    -2.789692
C      -2.586366     0.930359    -1.339418
C      -2.280436    -0.604680    -1.038476
C      -2.741585    -0.926290     0.473595
C      -1.815291    -1.785476     1.471621
C      -1.776153    -3.307980     1.151922
C      -3.196116    -3.921831     1.293105
C      -0.973587    -4.127988     2.220160
C      -0.395291    -1.174018     1.603397
C       0.717692    -1.850192     0.780863
O       1.438446    -0.812070     0.083186
C       2.366129    -0.128335     0.815989
O       2.523816    -0.268522     2.021976
C       3.144702     0.837259    -0.088282
C       4.279813     1.536840     0.732751
C       3.737831     2.799280     1.399794
C       3.470234     3.959134     0.650733
C       2.959319     5.101668     1.266561
C       2.702848     5.099444     2.635487
C       2.959410     3.956182     3.390166
C       3.473407     2.812522     2.777151
N       5.482110     1.881907    -0.037465
C       6.341410     0.896905    -0.479769
O       6.067639    -0.296848    -0.381994
C       7.632733     1.341075    -1.071383
C       8.705419     0.440374    -1.076036
C       9.932219     0.811178    -1.629494
C      10.090389     2.080507    -2.184923
C       9.020989     2.975941    -2.199256
C       7.790853     2.608149    -1.648080
O       3.607628     0.168799    -1.266682
O      -2.418546    -1.640629     2.789202
O      -2.880458     0.343165     1.203996
C      -4.006602     0.514746     1.949989
O      -5.020864    -0.160438     1.880717
C      -3.861404     1.708443     2.823535
C      -2.610841     2.270816     3.115070
C      -2.523866     3.394530     3.939319
C      -3.681415     3.955718     4.479346
C      -4.927633     3.395167     4.198542
C      -5.019195     2.271462     3.375460
C      -4.024016     1.468570    -1.034256
O      -4.111409     2.116938    -2.319374
O      -1.441519     1.632486    -0.744256
C      -1.430761     2.987814    -0.623169
O      -2.287906     3.771850    -0.992686
C      -0.144725     3.412088     0.019317
O      -2.969175    -1.731519    -4.707013
C      -4.177193    -2.082542    -2.092875
O      -2.897846    -4.659905    -1.208661
C      -3.327625    -5.449187    -2.230782
O      -2.747545    -5.609181    -3.292373
C      -4.633412    -6.087825    -1.869471
H       1.253536    -2.230651    -2.054823
H       2.214430    -3.244300    -0.958607
H       0.994843    -3.984486    -1.963140
H      -0.974169    -4.746171    -1.830761
H      -1.527015    -0.582762    -3.800713
H      -4.484384     0.131864    -3.681072
H      -3.328831     0.770040    -4.806534
H      -2.209009     2.070171    -3.223061
H      -1.186134    -0.667336    -1.045576
H      -3.732393    -1.378049     0.427952
H      -3.183196    -5.006786     1.135438
H      -3.595463    -3.773768     2.304650
H      -3.932098    -3.487259     0.621822
H      -1.486369    -4.143829     3.188838
H       0.032555    -3.752884     2.414933
H      -0.865688    -5.172751     1.899783
H      -0.076360    -1.206778     2.655087
H      -0.432191    -0.098992     1.385302
H       1.419963    -2.380318     1.437063
H       2.419222     1.580821    -0.437012
H       4.643003     0.856371     1.514624
H       3.651059     3.976417    -0.422690
H       2.757017     5.993912     0.678283
H       2.304605     5.989596     3.115906
H       2.759319     3.954204     4.458900
H       3.661005     1.928576     3.385461
H       5.880941     2.795733     0.134335
H       8.588096    -0.554750    -0.649767
H      10.762148     0.107980    -1.632404
H      11.045136     2.367555    -2.620494
H       9.143589     3.957436    -2.651490
H       6.963860     3.309875    -1.704315
H       4.403233    -0.345679    -1.006266
H      -1.837457    -2.032187     3.462312
H      -1.698551     1.838071     2.713847
H      -1.553199     3.831619     4.161687
H      -3.613188     4.832161     5.119655
H      -5.829798     3.833504     4.618647
H      -5.994670     1.840824     3.159125
H      -4.119743     2.198049    -0.226786
H      -4.811272     0.717467    -0.924483
H      -0.252050     4.426643     0.413198
H       0.655493     3.391926    -0.723672
H       0.095498     2.751878     0.857506
H      -2.232613    -2.369953    -4.825117
H      -4.341507    -2.668609    -1.193663
H      -4.465300    -2.727592    -2.930648
H      -4.891197    -1.256290    -2.055569
H      -5.391212    -5.315758    -1.722227
H      -4.514509    -6.685719    -0.961468
H      -4.953510    -6.747289    -2.680902
