62
3D optimized structure of Palbociclib
C      -3.719448     3.909418    -1.924308
C      -3.957851     2.540041    -1.336068
C      -5.173110     1.977475    -1.170202
C      -5.328899     0.587118    -0.648366
O      -6.462170     0.116215    -0.551791
N      -4.181970    -0.112344    -0.299454
C      -2.889042     0.466212    -0.440284
N      -1.815078    -0.270018    -0.084267
C      -0.591903     0.263242    -0.194227
N      -0.389738     1.503468    -0.643854
C      -1.476444     2.217488    -0.997442
C      -2.776720     1.754973    -0.932051
N       0.452190    -0.555609     0.188232
C       1.825824    -0.423608     0.244338
N       2.481050    -1.510778     0.696370
C       3.838699    -1.452512     0.779146
C       4.639959    -0.361155     0.440360
C       3.921204     0.739442    -0.027868
C       2.523322     0.714286    -0.125682
N       6.020058    -0.358307     0.535097
C       6.770696     0.903705     0.657298
C       8.082815     0.709164     1.452647
N       8.992180    -0.329200     0.939302
C       8.246500    -1.426864     0.295459
C       6.782252    -1.597772     0.760922
C      -4.326235    -1.482603     0.211592
C      -3.742469    -1.750322     1.613445
C      -2.886341    -3.006839     1.468967
C      -3.443537    -3.716952     0.244515
C      -3.766561    -2.577048    -0.710117
C      -6.408536     2.747392    -1.512091
O      -6.589644     3.876281    -1.054313
C      -7.411817     2.108692    -2.437166
H      -4.608260     4.353680    -2.378804
H      -3.357833     4.599286    -1.154449
H      -2.979114     3.860779    -2.731022
H      -1.234442     3.217539    -1.345489
H       0.141556    -1.460279     0.504044
H       4.274193    -2.367674     1.168546
H       4.431496     1.641290    -0.352241
H       2.013098     1.593974    -0.498555
H       6.998864     1.284360    -0.345488
H       6.181411     1.663469     1.184955
H       8.624455     1.660639     1.500995
H       7.830016     0.447169     2.487919
H       9.619990     0.078703     0.247188
H       8.243847    -1.247592    -0.787674
H       8.794099    -2.360859     0.460776
H       6.751892    -1.864597     1.824326
H       6.352230    -2.427233     0.186905
H      -5.399285    -1.696064     0.305340
H      -4.564574    -1.946598     2.313366
H      -3.171698    -0.917757     2.035077
H      -1.839997    -2.730830     1.296905
H      -2.922352    -3.634957     2.363968
H      -2.731309    -4.428010    -0.183571
H      -4.357893    -4.262287     0.506605
H      -4.493248    -2.875128    -1.473044
H      -2.859787    -2.263430    -1.236651
H      -8.266712     1.749439    -1.859320
H      -7.744903     2.852069    -3.167207
H      -6.964975     1.278220    -2.990658
