52
3D optimized structure of Pemetrexed
C      -0.832712     1.000001    -0.222403
C       0.234999     0.631024    -1.043811
C       1.352956    -0.017626    -0.505151
C       1.379405    -0.316867     0.862156
C       0.307979     0.051684     1.682287
C      -0.803028     0.718218     1.148902
C      -1.969503     1.094939     2.034328
C      -2.957165    -0.055310     2.264651
C      -3.775904    -0.395532     1.057843
C      -3.573674    -1.455457     0.186607
N      -4.538170    -1.411501    -0.791307
C      -5.359058    -0.346855    -0.563023
C      -4.916802     0.298626     0.568301
C      -5.647359     1.466455     0.996804
O      -5.375398     2.134401     1.988971
N      -6.706228     1.771964     0.161388
C      -7.056254     1.033828    -0.948416
N      -6.412793    -0.027549    -1.348391
N      -8.134391     1.475319    -1.646104
C       2.459384    -0.388847    -1.432897
O       2.225687    -0.581238    -2.621671
N       3.725712    -0.475267    -0.894028
C       4.827861    -1.066065    -1.649319
C       6.154033    -0.327159    -1.398449
C       6.762228    -0.492303    -0.005107
C       6.025516     0.296864     1.038209
O       4.956717    -0.015585     1.540151
O       6.639224     1.446378     1.363883
C       4.978271    -2.570567    -1.387730
O       5.799098    -3.307222    -1.914641
O       4.145098    -3.060734    -0.445100
H      -1.695134     1.496405    -0.662776
H       0.191627     0.850852    -2.108687
H       2.207110    -0.859017     1.309546
H       0.342635    -0.194040     2.741684
H      -1.572006     1.421975     3.004045
H      -2.481912     1.970025     1.614836
H      -3.639325     0.225408     3.077079
H      -2.424094    -0.950112     2.610740
H      -2.818240    -2.230480     0.174696
H      -4.637616    -2.054808    -1.563753
H      -7.274742     2.549674     0.447529
H      -8.205176     1.006394    -2.544727
H      -8.223021     2.478876    -1.733534
H       3.822226    -0.456913     0.117200
H       4.586838    -0.976011    -2.715565
H       6.890649    -0.698635    -2.122849
H       6.014674     0.740621    -1.611329
H       7.803414    -0.146819    -0.023116
H       6.800958    -1.538773     0.314096
H       6.051913     1.872464     2.023023
H       4.343490    -4.019839    -0.425072
