44
3D optimized structure of Pimicotinib
C      -5.857970     1.791687    -0.256328
C      -5.129200     0.464646    -0.490927
C      -4.690913    -0.139891     0.853773
C      -3.343798    -0.850540     0.737983
N      -2.324087     0.107002     0.302331
C      -2.674766     1.059554    -0.756219
C      -3.957490     0.640823    -1.467620
C      -1.004205    -0.333290     0.386232
N      -0.756097    -1.613976     0.734375
C       0.548930    -1.987941     0.810829
C       1.630615    -1.137553     0.574828
N       1.393077     0.141651     0.233651
C       0.085754     0.514373     0.158117
N       2.943463    -1.652353     0.684315
C       4.162388    -1.046776     0.307633
C       4.255145    -0.093590    -0.713631
C       5.491995     0.449799    -1.105877
C       6.661790    -0.006020    -0.484974
C       6.593374    -0.981014     0.506745
C       5.355175    -1.502460     0.889473
C       5.548992     1.472647    -2.211512
F       6.690958     2.218134    -2.194707
F       5.498157     0.903292    -3.447983
F       4.524639     2.369667    -2.170197
O      -6.090596    -0.405363    -1.105015
H      -5.201763     2.544245     0.192234
H      -6.252519     2.193183    -1.196902
H      -6.721940     1.648305     0.403118
H      -4.588767     0.650406     1.609435
H      -5.443347    -0.845400     1.225986
H      -3.094189    -1.256237     1.726768
H      -3.415900    -1.691663     0.036513
H      -1.889136     1.137212    -1.517790
H      -2.793931     2.053870    -0.310689
H      -3.776185    -0.300010    -2.005722
H      -4.210804     1.371114    -2.246189
H       0.705322    -3.029672     1.070075
H      -0.060579     1.561911    -0.081826
H       3.034183    -2.166083     1.554471
H       3.355208     0.240384    -1.227269
H       7.631932     0.391202    -0.779557
H       7.503818    -1.341973     0.978939
H       5.333488    -2.273448     1.655807
H      -5.670222    -1.269855    -1.254221
