116
3D optimized structure of RMC-6236
C      -3.149268     1.974616    -3.339717
C      -3.003124     2.721131    -2.024109
N      -2.155729     2.013227    -1.071615
C      -0.775658     2.079479    -1.076896
C      -0.326017     1.289640    -0.021168
C       1.062442     1.225170     0.221428
C       1.973029     1.917889    -0.596360
C       1.485771     2.674799    -1.663072
C       0.112070     2.772207    -1.917327
C       3.397357     1.811666    -0.298492
C       4.362186     2.725055    -0.674870
S       5.894631     2.250471    -0.063930
C       5.169989     0.865004     0.645303
N       3.874998     0.747929     0.448303
C       5.963168    -0.101006     1.469187
C       6.838380    -1.057729     0.653893
C       6.210798    -1.605753    -0.651119
O       6.695503    -1.296604    -1.749665
N       5.139973    -2.493695    -0.554685
C       4.557057    -3.039926    -1.779984
C       3.587630    -4.172247    -1.474399
C       2.502564    -3.724843    -0.490388
C       2.951353    -2.579714     0.433658
N       4.422827    -2.651221     0.655808
C       2.253759    -2.654967     1.802121
O       2.730342    -3.258807     2.760997
O       1.082284    -1.972008     1.919175
C       0.074145    -2.149014     0.909467
C      -1.321602    -1.766709     1.458991
C      -1.442587    -0.249272     1.785112
C      -1.469382     0.699978     0.609551
C      -2.596074     1.240035    -0.010989
C      -4.014517     1.084232     0.334586
C      -4.634000     1.781807     1.380233
N      -5.957231     1.619772     1.650030
C      -6.669105     0.758538     0.879170
C      -6.166647     0.016288    -0.187124
C      -4.801428     0.207549    -0.432489
N      -6.908208    -0.873283    -0.970699
C      -6.765940    -0.671748    -2.436080
C      -7.929608    -1.318166    -3.223383
N      -9.258045    -0.800408    -2.830849
C      -9.357469    -0.609403    -1.365013
C      -8.253200    -1.310787    -0.543411
C     -10.318954    -1.664353    -3.340667
C      -3.880519     2.774557     2.262694
C      -3.914731     2.313822     3.720564
O      -4.460717     4.093398     2.240985
C      -4.273396     4.766224     1.006522
C      -2.382751    -2.222278     0.441602
C      -1.572668    -2.543018     2.773955
N       8.113684    -0.434289     0.267267
C       9.134450    -0.227044     1.150028
O       9.089119    -0.496725     2.341358
C      10.363982     0.339646     0.544489
C      10.317538     1.554928    -0.357430
C      10.877351     1.678498     1.031853
C      12.337197     1.887129     1.243701
H      -2.180815     1.838739    -3.831725
H      -3.585999     0.982602    -3.189376
H      -3.799398     2.532850    -4.020433
H      -2.565909     3.712319    -2.187078
H      -3.985275     2.885726    -1.573385
H       1.429954     0.643968     1.064109
H       2.164989     3.205340    -2.325784
H      -0.243586     3.376154    -2.746303
H       4.258311     3.639616    -1.239065
H       5.257704    -0.678097     2.078542
H       6.567906     0.457348     2.194857
H       7.104938    -1.917114     1.282538
H       4.052567    -2.220461    -2.306356
H       5.366575    -3.398014    -2.426076
H       3.131323    -4.550446    -2.395710
H       4.142899    -5.008768    -1.030467
H       2.160792    -4.595149     0.083261
H       1.641012    -3.382355    -1.076270
H       2.723623    -1.605843    -0.012662
H       4.649747    -3.554891     1.085326
H       0.326399    -1.554193     0.027566
H       0.057614    -3.206260     0.619100
H      -0.628488     0.049485     2.458767
H      -2.361118    -0.093535     2.363956
H      -7.715536     0.717789     1.161554
H      -4.319606    -0.362464    -1.222674
H      -6.739232     0.400623    -2.673282
H      -5.826235    -1.119756    -2.779277
H      -7.882363    -2.406087    -3.077278
H      -7.777562    -1.130874    -4.292959
H     -10.339176    -0.920985    -0.987145
H      -9.292597     0.470152    -1.179299
H      -8.426528    -1.176607     0.529059
H      -8.321894    -2.394682    -0.705132
H     -10.285530    -2.665339    -2.895762
H     -10.243322    -1.766603    -4.428937
H     -11.302072    -1.226951    -3.134421
H      -2.829316     2.867180     1.973230
H      -3.343541     3.006541     4.348792
H      -3.495984     1.310770     3.842085
H      -4.937256     2.310272     4.115801
H      -3.214225     4.796124     0.733231
H      -4.857868     4.291825     0.213953
H      -4.629597     5.793768     1.120542
H      -3.392181    -1.990041     0.794995
H      -2.338687    -3.306838     0.286340
H      -2.235776    -1.753232    -0.536487
H      -0.884245    -2.229441     3.566448
H      -2.592065    -2.377277     3.141398
H      -1.445507    -3.621626     2.627101
H       8.255426    -0.261235    -0.724191
H      11.112175    -0.414681     0.321608
H      11.000524     1.583078    -1.198862
H       9.363023     2.031295    -0.551611
H      10.286503     2.206725     1.773212
H      12.941634     1.361006     0.497524
H      12.628804     1.525555     2.234641
H      12.577046     2.953326     1.185396
