122
3D optimized structure of RMC-7977
C      -3.204612     3.105784    -3.486102
C      -3.052000     2.990821    -1.979489
N      -2.142248     1.923732    -1.583336
C      -0.771898     2.080294    -1.475139
C      -0.266645     0.869048    -1.013392
C       1.120504     0.762381    -0.791631
C       1.980341     1.855090    -0.981698
C       1.443920     3.049455    -1.465512
C       0.069119     3.179552    -1.728310
C       3.377749     1.706565    -0.579707
C       4.425945     2.520483    -0.957065
S       5.869756     2.030538    -0.158575
C       5.010584     0.756336     0.606030
N       3.737063     0.685938     0.288161
C       5.629172    -0.140985     1.637503
C       6.799494    -1.009090     1.173483
C       6.656180    -1.665273    -0.217981
O       7.392491    -1.296268    -1.144880
N       5.737822    -2.699528    -0.383118
C       5.648962    -3.422589    -1.655041
C       4.281996    -3.209004    -2.291401
C       3.181761    -3.537227    -1.285747
C       3.392070    -2.764124     0.025010
N       4.747681    -3.003595     0.593497
C       2.299241    -3.182522     1.009113
O       2.370834    -4.118253     1.794319
O       1.196738    -2.414929     0.790067
C      -0.026175    -2.809995     1.431623
C      -1.104718    -1.716114     1.181406
C      -1.245325    -1.464343    -0.358953
C      -1.360780    -0.036175    -0.832724
C      -2.510402     0.634462    -1.233769
C      -3.884489     0.129844    -1.294970
C      -4.392440    -0.580357    -2.391053
N      -5.670621    -1.046019    -2.398465
C      -6.439805    -0.813586    -1.303606
C      -6.048179    -0.110248    -0.163922
C      -4.726469     0.347799    -0.191054
N      -6.855524     0.103359     0.963882
C      -8.136355    -0.631803     1.044307
C      -8.790878    -0.463021     2.433448
N      -8.964548     0.938308     2.868651
C      -7.666746     1.635999     2.763887
C      -6.969282     1.519153     1.389199
C     -10.049670     1.632542     2.155903
C     -10.766802     2.760342     2.847505
C     -11.465078     1.450574     2.633271
C      -3.525014    -0.901953    -3.605797
C      -4.353048    -1.040495    -4.886232
O      -2.816968    -2.127771    -3.362206
C      -1.565498    -2.184681    -4.031308
C      -2.447623    -2.235043     1.735336
C      -0.720581    -0.466876     2.000939
N       8.062564    -0.253988     1.144983
C       8.745827     0.092885     2.274358
O       8.376622    -0.146040     3.414457
C      10.030762     0.783770     2.023033
C      10.108763     1.989696     1.112754
C      10.233587     2.176692     2.576251
C      11.592377     2.722223     2.829019
O      12.125121     3.107504     1.550044
C      11.398455     2.425876     0.514508
H      -3.644378     2.199132    -3.911433
H      -2.238752     3.270001    -3.974638
H      -3.859689     3.946179    -3.735884
H      -4.023935     2.818249    -1.508141
H      -2.668136     3.927679    -1.560895
H       1.515750    -0.172670    -0.411255
H       2.075009     3.921653    -1.615758
H      -0.326336     4.124225    -2.088295
H       4.430026     3.369345    -1.624042
H       4.835414    -0.792440     2.023079
H       5.925356     0.477421     2.494451
H       6.952908    -1.812935     1.905145
H       5.810730    -4.485417    -1.438298
H       6.437290    -3.105722    -2.344728
H       4.177545    -3.832769    -3.185450
H       4.182167    -2.162959    -2.606981
H       3.172307    -4.617900    -1.090882
H       2.204684    -3.290756    -1.719026
H       3.291682    -1.692923    -0.157816
H       4.819352    -3.994142     0.853046
H      -0.346618    -3.764845     0.997472
H       0.145402    -2.949663     2.505919
H      -2.102793    -2.036009    -0.735909
H      -0.394825    -1.899512    -0.899841
H      -7.436990    -1.231149    -1.398212
H      -4.312431     0.849015     0.680736
H      -7.965361    -1.703830     0.886146
H      -8.826215    -0.276472     0.268571
H      -9.756307    -0.983329     2.447753
H      -8.166580    -0.972485     3.179423
H      -6.999039     1.218590     3.529285
H      -7.788234     2.695204     3.021696
H      -5.986846     1.993871     1.484707
H      -7.533123     2.083083     0.635067
H      -9.920192     1.739988     1.080523
H     -11.077924     3.607058     2.247819
H     -10.474128     3.014833     3.859725
H     -11.641067     0.826087     3.501653
H     -12.250048     1.407831     1.888020
H      -2.815625    -0.080899    -3.762644
H      -4.969695    -0.152702    -5.061545
H      -3.703112    -1.179018    -5.756301
H      -5.006433    -1.919523    -4.846001
H      -1.699083    -2.147822    -5.115742
H      -0.913942    -1.368692    -3.704751
H      -1.084324    -3.132471    -3.774958
H      -2.765702    -3.147901     1.219230
H      -3.239245    -1.488873     1.617000
H      -2.372154    -2.471628     2.802892
H       0.265367    -0.081432     1.729979
H      -1.455236     0.337140     1.884547
H      -0.678851    -0.703415     3.071264
H       8.470487    -0.087405     0.229061
H      10.887064     0.117851     2.062479
H       9.231488     2.375247     0.615463
H       9.441355     2.666563     3.122874
H      12.255800     1.975872     3.277581
H      11.567624     3.606701     3.471929
H      11.251472     3.119877    -0.317998
H      11.993990     1.575865     0.166223
