42
3D optimized structure of Selumetinib
C      -1.808017     4.712953    -1.444071
N      -0.508442     4.101409    -1.321905
C       0.671407     4.664881    -1.712559
N       1.688240     3.873244    -1.463072
C       1.147627     2.746591    -0.882352
C      -0.237437     2.862631    -0.791484
C      -1.042378     1.861838    -0.240112
C      -0.393021     0.696501     0.224244
C       1.014423     0.534153     0.167057
C       1.772002     1.581242    -0.397299
F       3.112330     1.507852    -0.436841
N       1.594271    -0.679114     0.611358
C       2.762825    -1.387967     0.268979
C       3.339060    -2.291550     1.188290
C       4.509859    -2.994315     0.889558
C       5.126181    -2.799787    -0.341234
C       4.582200    -1.916935    -1.269039
C       3.409223    -1.217945    -0.962357
Br      6.709743    -3.742888    -0.759181
Cl      2.605746    -2.566633     2.733582
C      -1.232454    -0.382795     0.820272
O      -0.822619    -1.003548     1.796469
N      -2.437413    -0.615604     0.179770
O      -3.025448    -1.858375     0.533426
C      -4.082488    -1.609279     1.471094
C      -4.646976    -2.952235     1.917942
O      -5.244885    -3.627863     0.811404
H      -2.435548     4.071488    -2.067993
H      -1.708944     5.697583    -1.908083
H      -2.237588     4.816336    -0.444414
H       0.738532     5.645504    -2.167111
H      -2.116033     1.992856    -0.151299
H       1.069234    -1.116501     1.380553
H       4.932235    -3.683014     1.615582
H       5.058551    -1.759888    -2.233606
H       3.001082    -0.547152    -1.713351
H      -2.499091    -0.402643    -0.810572
H      -3.694275    -1.062055     2.337119
H      -4.858296    -1.017296     0.972605
H      -3.859598    -3.598740     2.318178
H      -5.415495    -2.811490     2.683067
H      -4.538326    -3.721449     0.145439
