71
3D optimized structure of Sotorasib
C       4.124422    -0.395598    -2.810862
C       3.447873    -0.976118    -1.566396
C       4.459004    -1.672194    -0.613359
N       5.272458    -0.692303     0.122678
C       4.455997     0.269556     0.862765
C       3.527793     1.036142    -0.093229
N       2.663555     0.098618    -0.873850
C       1.454806    -0.275669    -0.285238
N       1.341282    -1.438571     0.276740
C       0.182390    -1.845510     0.892100
O       0.116656    -2.971515     1.380205
N      -0.882205    -0.957311     0.955822
C      -0.846060     0.294412     0.316044
N      -1.947858     1.097078     0.333543
C      -1.913080     2.284503    -0.342737
C      -0.756145     2.701697    -0.999439
C       0.366561     1.884968    -1.005323
C       0.318281     0.667398    -0.330240
F      -0.674524     3.897351    -1.598192
C      -3.158652     3.071013    -0.276406
C      -3.966795     3.096053     0.877827
C      -5.118432     3.882063     0.963538
C      -5.519910     4.647493    -0.126695
C      -4.771091     4.613020    -1.298241
C      -3.614905     3.831665    -1.364840
F      -2.959719     3.801219    -2.535831
O      -3.678654     2.342438     1.988027
C      -2.100751    -1.333348     1.574253
C      -2.333975    -0.985624     2.920653
C      -3.560076    -1.328894     3.495421
C      -4.489732    -2.007462     2.728734
N      -4.287491    -2.364352     1.444590
C      -3.097601    -2.035778     0.870957
C      -2.935925    -2.452484    -0.581299
C      -3.947018    -1.719689    -1.466119
C      -3.081146    -3.968818    -0.731374
C      -1.316280    -0.245813     3.742392
C       6.531772    -0.279864    -0.284501
O       6.964956     0.851209    -0.079152
C       7.366577    -1.297625    -0.974632
C       8.361085    -0.921168    -1.788271
H       4.857871     0.378552    -2.567930
H       3.379913     0.057144    -3.475023
H       4.640821    -1.182481    -3.370581
H       2.751892    -1.742896    -1.932704
H       3.922169    -2.260052     0.139993
H       5.076794    -2.369692    -1.183455
H       5.089401     0.971061     1.415945
H       3.869467    -0.292929     1.598817
H       2.912055     1.735209     0.483894
H       4.115884     1.639740    -0.793405
H       1.255049     2.210431    -1.535749
H      -5.706350     3.881208     1.878065
H      -6.420308     5.253141    -0.067305
H      -5.079723     5.184337    -2.168718
H      -3.105827     1.605511     1.684771
H      -3.794806    -1.076060     4.524275
H      -5.453733    -2.292008     3.140923
H      -1.938098    -2.192999    -0.948592
H      -3.798292    -1.980836    -2.519386
H      -3.836961    -0.633757    -1.371290
H      -4.979530    -1.973740    -1.201386
H      -2.906982    -4.271656    -1.769524
H      -2.354742    -4.494754    -0.101785
H      -4.081411    -4.314002    -0.446871
H      -0.350863    -0.761020     3.715931
H      -1.619605    -0.183239     4.793016
H      -1.195306     0.775710     3.368972
H       7.187074    -2.342943    -0.761313
H       8.570964     0.127922    -1.979927
H       8.995739    -1.657088    -2.269724
