54
3D optimized structure of Topotecan
C       5.665270     0.455113     1.908020
C       5.695589     0.715418     0.407244
C       5.281763    -0.480864    -0.477991
C       3.897343    -0.989453    -0.188026
C       3.719610    -2.158102     0.454736
C       4.838920    -3.025585     0.905429
O       6.145551    -2.633482     0.436057
C       6.360912    -1.580903    -0.378578
O       7.424851    -1.469100    -0.991206
C       2.340205    -2.649327     0.778357
O       2.167588    -3.706567     1.375332
N       1.324351    -1.826073     0.367685
C      -0.102285    -2.101870     0.563881
C      -0.749735    -0.907706    -0.065886
C      -2.079555    -0.567870    -0.202593
C      -2.418858     0.648339    -0.848021
C      -1.325982     1.439382    -1.334719
C      -1.591818     2.619142    -2.004773
C      -2.893021     3.056807    -2.225233
C      -3.957097     2.307447    -1.748774
C      -3.761245     1.107788    -1.039166
C      -4.958168     0.278736    -0.586427
N      -6.136048     1.086151    -0.178926
C      -5.914951     1.693189     1.144005
C      -7.328925     0.231670    -0.125390
O      -5.203027     2.811185    -2.006356
N      -0.030286     1.106900    -1.195496
C       0.210288    -0.048123    -0.571659
C       1.517843    -0.630945    -0.297923
C       2.744755    -0.190634    -0.587986
O       5.303148    -0.015914    -1.842601
H       6.328768    -0.369058     2.185726
H       4.654854     0.222556     2.256869
H       6.001877     1.347305     2.446290
H       5.055447     1.579402     0.184355
H       6.709385     1.036004     0.131359
H       4.687715    -4.053461     0.558431
H       4.885182    -3.044585     1.999575
H      -0.361113    -3.035091     0.054604
H      -0.309864    -2.173331     1.635811
H      -2.828274    -1.248105     0.185633
H      -0.762089     3.214698    -2.378865
H      -3.075406     3.981768    -2.765136
H      -5.224325    -0.349791    -1.446881
H      -4.702043    -0.392799     0.238340
H      -5.756372     0.939845     1.924271
H      -5.049744     2.364302     1.132099
H      -6.777985     2.305971     1.427782
H      -7.541040    -0.191881    -1.113340
H      -7.217332    -0.592288     0.588731
H      -8.209242     0.819467     0.157708
H      -5.833795     2.309611    -1.442682
H       2.893042     0.742710    -1.124585
H       6.245368     0.012000    -2.105959
