97
3D optimized structure of Trabectedin
C       2.261885     5.213853    -2.145116
C       2.624679     3.840289    -1.664097
C       2.766110     3.594886    -0.291370
C       3.113393     2.319169     0.186079
C       3.295195     1.250979    -0.713129
C       3.649263    -0.119880    -0.170712
C       2.423170    -1.016302     0.324693
C       1.296186    -1.272153    -0.740899
C       0.429039    -2.426769    -0.268933
C      -0.194055    -3.313265    -1.189194
C      -0.893919    -4.459356    -0.777414
C      -1.003865    -4.642929     0.587865
C      -0.436373    -3.775500     1.499112
C       0.282017    -2.646139     1.119344
C       0.905725    -1.729370     2.176666
N       1.811923    -0.679575     1.628913
C       2.750953    -0.152180     2.624508
C       3.926907     0.716325     2.061441
C       3.416806     2.131256     1.658883
N       4.642488     0.118243     0.908224
C       5.510864    -1.006023     1.190062
O       3.308359    -1.201657     3.413572
C      -0.195432    -1.079916     3.064275
O      -1.117603    -0.370980     2.223658
C      -0.794460     0.922873     1.930792
O      -0.066020     1.613688     2.635946
C      -1.470202     1.361277     0.584270
C      -1.291081     0.207467    -0.470694
S       0.307886     0.164303    -1.388990
C      -2.988289     1.610717     0.810524
C      -3.827741     0.589294     1.315952
C      -5.193380     0.802006     1.518187
C      -5.732716     2.049307     1.203785
C      -4.947697     3.064825     0.680391
C      -3.580923     2.844910     0.458910
C      -2.753584     3.951727    -0.140702
C      -1.502785     3.397710    -0.812140
N      -0.751832     2.604130     0.145781
O      -7.065604     2.293339     1.395545
O      -6.092454    -0.111608     2.006705
C      -5.587202    -1.408207     2.304522
O      -0.646202    -4.182746     2.784151
C      -1.424949    -5.376950     2.582855
O      -1.649987    -5.678416     1.195508
C      -1.532370    -5.411520    -1.739278
O      -0.028429    -3.068054    -2.561454
C      -1.137864    -2.472504    -3.155681
O      -2.205230    -2.207172    -2.618402
C      -0.825130    -2.203129    -4.596985
C       3.189490     1.509067    -2.081876
C       2.812692     2.774790    -2.550273
O       2.681992     2.958814    -3.906586
C       1.331307     2.698495    -4.301905
O       3.443969     0.508380    -2.984713
H       2.498366     5.972234    -1.391094
H       1.191167     5.267853    -2.362650
H       2.826076     5.473293    -3.046810
H       2.631990     4.408042     0.420699
H       4.160558    -0.675959    -0.967451
H       2.901275    -1.997674     0.481942
H       1.840008    -1.627680    -1.626310
H       1.484988    -2.414622     2.807063
H       2.200341     0.470761     3.335777
H       4.647322     0.858419     2.878921
H       2.541237     2.419982     2.250544
H       4.217672     2.843829     1.901604
H       4.985256    -1.944850     1.374015
H       6.158069    -0.796287     2.048351
H       6.177178    -1.176679     0.336775
H       3.635713    -1.855666     2.781649
H      -0.779081    -1.839770     3.592224
H       0.219197    -0.435894     3.847477
H      -1.547726    -0.775637    -0.074080
H      -2.023898     0.377155    -1.271039
H      -3.400500    -0.381188     1.542022
H      -5.404767     4.020110     0.436889
H      -2.480964     4.657381     0.653965
H      -3.340712     4.498528    -0.888141
H      -1.757153     2.810706    -1.702708
H      -0.881825     4.234195    -1.150346
H       0.146027     2.317890    -0.255556
H      -7.420058     1.460771     1.763470
H      -6.421649    -2.015789     2.667748
H      -4.835880    -1.365752     3.100031
H      -5.188731    -1.893082     1.407099
H      -0.900192    -6.220205     3.046122
H      -2.394518    -5.251536     3.078357
H      -1.599028    -6.419195    -1.315715
H      -0.945069    -5.498802    -2.659054
H      -2.541637    -5.072245    -1.991407
H      -1.679482    -1.706517    -5.065665
H      -0.638850    -3.145645    -5.117590
H       0.042775    -1.542926    -4.671139
H       1.121086     1.624538    -4.270767
H       0.606118     3.244684    -3.688907
H       1.218171     3.033488    -5.337270
H       3.486213     0.959922    -3.849620
