60
3D optimized structure of Trametinib
C       0.935951    -2.660126    -1.099722
C      -0.142223    -1.606602    -1.096495
C      -0.106846    -0.375173    -0.532400
C      -1.357854     0.338289    -0.335186
C      -2.535665    -0.094550    -0.869096
N      -2.502445    -1.242396    -1.669085
C      -1.394118    -2.064015    -1.774469
O      -1.389247    -3.119571    -2.406604
C      -3.698086    -1.662245    -2.394757
N      -3.762342     0.563791    -0.667544
C      -4.828812    -0.024187     0.081843
C      -4.652586    -1.015976     1.061707
C      -5.727080    -1.510284     1.798282
C      -7.001293    -0.995681     1.576562
C      -7.200383     0.012598     0.633634
C      -6.115601     0.502125    -0.100760
I      -8.612487    -1.721717     2.668669
F      -3.431449    -1.503146     1.333109
C      -1.365849     1.541305     0.546831
O      -2.388216     2.222379     0.670756
N      -0.186311     1.834249     1.208455
C       1.043388     1.217491     0.963380
O       2.052554     1.587423     1.574508
N       1.068719     0.213711    -0.031154
C       2.360836    -0.018007    -0.656385
C       2.466130    -0.032651    -2.056121
C       3.699078    -0.242107    -2.673880
C       4.848338    -0.432241    -1.905226
C       4.775803    -0.411878    -0.513597
C       3.530196    -0.205426     0.099505
N       5.888871    -0.582134     0.336618
C       7.200596    -0.822783    -0.029454
O       7.634012    -0.975022    -1.165841
C       8.116444    -0.926604     1.164911
C      -0.217988     2.906575     2.202005
C      -0.752039     4.289194     1.897432
C       0.709441     4.100678     2.138289
H       1.690296    -2.498342    -0.326415
H       1.422309    -2.721357    -2.077817
H       0.511917    -3.645592    -0.872413
H      -4.239719    -0.796470    -2.787970
H      -3.438431    -2.294100    -3.250244
H      -4.337009    -2.245306    -1.725228
H      -3.597522     1.480926    -0.221313
H      -5.544009    -2.282547     2.538560
H      -8.189366     0.430322     0.459924
H      -6.278971     1.291878    -0.831188
H       1.597596     0.139816    -2.687064
H       3.770983    -0.249985    -3.759085
H       5.788052    -0.585653    -2.427031
H       3.468318    -0.219441     1.184709
H       5.699703    -0.509973     1.328979
H       8.077551    -1.943700     1.563483
H       7.827408    -0.214689     1.943436
H       9.140521    -0.694901     0.858169
H      -0.429779     2.515738     3.195050
H      -1.340711     4.778889     2.664598
H      -1.068472     4.521708     0.887236
H       1.128943     4.458442     3.071500
H       1.378956     4.199053     1.291402
