60
 energy: -137.743399435561 gnorm: 0.003913052881 xtb: 6.7.1pre (5071a88)
N            0.14844528740681       -0.29145453017160        0.33875892221224
C            0.15184753317688        1.12542239434316        0.40471120978625
C            1.37421938961625       -0.93077248644135        0.16715294906568
C           -1.05980944317018       -0.94067404114986        0.30935146712955
N            1.28041956404020        1.77402321988050        0.36177033268066
N           -0.99571327232290        1.77073426112382        0.51581410874512
N            2.48079022369938       -0.26002519858642        0.10146560368028
N            1.33836967947610       -2.28041973710775        0.08743284010508
N           -2.18347104332666       -0.28026667930615        0.32540627545711
N           -1.03793247403250       -2.29130189156561        0.24802732210955
C            2.41288707548387        1.06602760452358        0.24830055295617
C            0.17724373459594       -2.92745103625926        0.42258878841552
C           -2.11024050162916        1.05234072275818        0.45826026094036
N            3.60411746049574        1.71501613659512        0.28846693599668
N            0.18844182954613       -4.28478222237660        0.60138884198151
N           -3.31217557547058        1.67697845768326        0.52732722619350
C            3.83636534653000        3.04255395862420        0.77557927732679
C            4.78134111818555        1.07958689765129        0.04734478274755
C           -3.50914416789642        3.09012307675389        0.63363851964201
C           -4.40959831284757        0.92086081862820        0.41783835630443
C            1.11101644235473       -4.83211529347142       -0.46390566816826
C           -0.85380910484126       -4.82650551170617       -0.34338356601959
N            5.01093488759841        3.58488152202537        0.71711508261742
N            5.90376377330472        1.55836398816124        0.09350687864724
N           -4.64311829466588        3.61349204667121        0.06771398225292
N           -5.38565408670385        0.33735627400552        0.30499937469125
N            2.16333768013870       -4.17651491664072       -0.78026981640760
N           -1.94231809607216       -4.18457542155249       -0.53806935564071
C            6.13568508734261        2.95130555510364        0.29188855812735
C           -5.76253036125827        3.24037792213948       -0.21423255318028
C            0.09683063014117       -5.66077703452543       -1.07752159240301
N            7.27671779432725        3.41056413204008        0.06470214565096
N           -6.95058385709470        3.22555957294353       -0.35538941288139
N            0.12691467557927       -6.65974796097425       -1.84621102355322
C            2.80351368235594        3.73419776464060        1.40386143363451
C           -2.63362911381216        3.89478438595359        1.20523786997154
C            2.49408358039490       -3.03045027374492       -0.27592000275458
C           -2.21489314419313       -3.03467202458648        0.01041955112656
C            1.60510146367825        4.23230391238369        1.58357921323882
C           -1.57089025569141        4.53323676872685        1.97936295763629
N            2.64266852262375        5.03851614686521        2.14404219563034
N           -2.52845318057189        5.26786279854375        1.48367427437803
H            7.39810408629631        4.41022802079194        0.13446124632490
H           -7.52947949847797        2.84558382483827       -1.07396584831068
H           -0.77541223452790       -7.05157673176753       -2.08981771772192
H            2.87618605938839        5.87712963340572        1.60530017843210
H           -3.00178784412683        6.14524244003928        1.39397920727765
H            0.54315053141724        4.20906153004188        1.49589179949087
C            0.54486996733733        2.07352184185271        3.69972932531562
C            0.84941956134653        0.78664650259696        3.44099130112843
C           -0.18348215089690       -0.22234401107379        3.23754110829170
O           -0.01408665935744       -1.37154933748266        2.89628296188997
N           -1.46006153874230        0.29856174614597        3.40915638567282
C           -1.81901675068103        1.61989339825468        3.59296270043725
O           -2.96077030886687        1.99912648547722        3.57232006550344
N           -0.75234405412947        2.46542087251100        3.79773752800062
F            2.13037231718304        0.41232493134300        3.29049975944629
H            1.30811876717097        2.82586400123999        3.82209550080681
H           -2.22858146385731       -0.35550076437009        3.28254516751567
H           -0.96629096311955        3.45840153756460        3.82511023042243
