121
 energy: -269.477745691321 gnorm: 0.001860290983 xtb: 6.7.1pre (5071a88)
N           -0.20240448618022        0.29855988529016        0.54400571243580
C           -0.39617642298800        1.65366341882870        0.17185670624757
C            1.10228496378470       -0.18234705118065        0.52452519717418
C           -1.31277483801001       -0.51709586350271        0.61532600261772
N            0.63360703601618        2.41032955641109       -0.09117751884219
N           -1.61761824863597        2.12055078165817        0.06557108418937
N            2.10371808710609        0.58071708540640        0.20632338580104
N            1.26878744820089       -1.48288509668510        0.84308420885631
N           -2.51260105429443       -0.05084448027939        0.42125358621415
N           -1.09304339392425       -1.82326301507639        0.88597420291569
C            1.84784947322419        1.85901505820531       -0.08167588076583
C            0.18002002950350       -2.20402796509423        1.28673179894835
C           -2.62418658926588        1.26523114153879        0.20439267364038
N            2.93145944551686        2.63338679863472       -0.35869495230076
N            0.36202493303687       -3.47666142654084        1.79758686301706
N           -3.88517993481581        1.74945696461142        0.10413415850037
C            2.89232192694186        4.03483246773465       -0.55829399528966
C            4.12829639818255        1.96358014717177       -0.52854089420405
C           -4.16576854443947        3.15245628693170       -0.07052368081135
C           -4.93529016874219        0.94186964513555        0.26110656409805
C            1.44291101083398       -4.08858973185737        0.93131691790100
C           -0.49963249337029       -4.35239304554915        0.91848006592595
N            3.96452884773780        4.74446687157767       -0.46294791886640
N            5.19637976220972        2.72253031396773       -0.42109393429800
N           -5.18113616265556        3.69265001516204        0.67278505770508
N           -5.89412203888486        0.33256886831573        0.38724802279176
N            2.42813416938970       -3.37109432823194        0.54971227242889
N           -1.64687691547155       -3.95610749230028        0.52320139207509
C            5.17280092950304        4.15388445576610       -0.13045505125211
C           -5.97482732282338        3.26902228395504        1.48802675511035
C            0.61585439433369       -5.17282202769681        0.45170192442855
N            6.39121933694181        4.85613779798160       -0.35606448014855
N           -6.65237765541674        3.13344348562574        2.46631031561260
N            0.85408573439589       -6.29519173024805       -0.06787181829004
C            1.70569062246239        4.65861168668415       -0.95068070918084
C           -3.46487405876008        3.87587137312649       -0.92114824321104
C            2.54924062767852       -2.10246888272655        0.77255745202886
C           -2.13162117284740       -2.77331667724736        0.77169007606560
C            0.51350451224015        4.84731292754786       -1.44822248640351
C           -2.49786031087125        4.32995673901384       -1.92720861010082
N            1.21550205359405        6.06141145497191       -1.23400226627673
N           -3.32495155775848        5.18186003676911       -1.37998314062721
H            6.22812976693300        5.82817780449197       -0.61482837057563
H           -7.59122430444936        2.80667942277314        2.56669582015234
H            0.04163826042837       -6.86352064576795       -0.27847496241671
H            1.59464754122844        6.50122620138289       -2.07705702514900
H           -3.65268433539608        6.12036055149908       -1.25868869787148
H           -0.44482370689177        4.50026634444545       -1.77953117841653
N           11.83255218426748       -0.36992961197419        0.72867148466842
C           11.89619563002519        0.98309781801800        0.99416705355394
C           13.10493037719217       -0.99483854817391        0.57982220246784
C           10.63383584423570       -0.97167397363873        0.42605187148518
N           12.97813216049818        1.68768645508947        0.93458639852799
N           10.65951008703177        1.58568838333051        1.27079075335310
N           14.19328675633847       -0.29638780682364        0.53546832716773
N           13.07842645832288       -2.34663097799232        0.48898089212856
N            9.54881792183663       -0.23936753668019        0.22395267205224
N           10.66445353953540       -2.33353939878883        0.26018268547727
C           14.11975623312646        1.02491771657872        0.65904898517277
C           11.83069591447392       -2.94914050700980        0.72501966459581
C            9.54580564372219        1.00991799748060        0.52407853144488
N           15.29012509427079        1.71130420588165        0.46763980220718
N           11.80934310950722       -4.26830463738903        0.85039982549563
N            8.61507492472121        1.89829665613458        0.19487152965473
C           15.53547763708295        3.11737473612580        0.63260355407590
C           16.40719721273758        1.10067964787136        0.03404373192996
C            7.44740332538162        1.97959045264282       -0.12564450925862
C           12.84206122772313       -5.08206166550280        0.19950521753307
C           10.91857293599024       -5.05395587802746        0.01872704372370
N           16.53525774071555        3.68243167448606        0.02820504845016
N           17.42621937603056        1.61030547897830       -0.40296342882751
N            5.89523047024198        4.64255867034221        0.99744082667522
N            6.39458281639202        2.16371447232169       -0.66780603857617
N           13.82022284667699       -4.38934780940417       -0.36120844329265
N           10.10992989619441       -4.35042577596416       -0.76094370283732
C           17.48809747931876        3.01805172435327       -0.67017067928541
C           11.92049146765590       -6.11631605684619       -0.23765235319354
N           18.36496481897646        3.44041880142491       -1.45354249427985
N           12.03898328498643       -7.27614016877529       -0.68013821749252
C           14.75331975987909        3.85311047316318        1.50870940824362
C           10.52636662876418        2.64456913401083        2.01997876672491
C           13.96493210926719       -3.13436786354111       -0.24599991082316
C            9.95803112023363       -3.08935383194004       -0.65330816057259
C           13.73084855964211        4.27039152875548        2.21852712858192
C           10.84774950123550        3.60347300096997        3.00382211996570
N           14.70799542507666        5.27204572895526        2.00688910651439
N            9.60761844848943        3.52013540161788        2.42992722535078
H           18.38896616141558        4.43107711041841       -1.64554145963920
H           11.19723430704914       -7.76199825512862       -0.95990867021386
H           14.47061405650451        5.98830827004270        1.31814328528440
H            6.47232456152122        3.94463551111939        1.46763650030159
H           12.79518943629339        4.14060360515666        2.71999531346763
C            8.91179591312832        1.29012603480044        4.60695803241898
C            7.72299103205846        0.65102309812497        4.51074017655627
N            6.68801125281878        0.96950952984187        5.31623115733048
C            6.86767821310407        1.92998569169584        6.37571945959140
O            5.97089888943469        2.09409295109664        7.17226436649472
N            8.01667823720444        2.60578687273622        6.38949724631707
C            9.00178923614525        2.35104264045488        5.56223132048968
N           10.11917379893032        3.09013565019041        5.68343395962391
C            5.41592769597222        0.29440364748933        5.16808065345491
C            5.14468740206681       -0.72738687000276        6.30774690398163
C            4.01616237075267       -0.10794848707759        7.13776103185397
C            3.34900183299013        0.83012420715579        6.11191811806135
O            4.36057609072663        1.20431059617665        5.17617412351763
C            2.72018211843499        2.09511103259673        6.72910505139959
O            3.33609079854611        2.53409356160934        7.89725849348234
O            3.15730946842823       -1.08786507707171        7.63675298739894
F            4.79186289492290       -1.91788031220104        5.76518964465905
F            6.26539803527186       -0.98329581426960        7.02266160702369
H            9.75371042370243        1.00894421826766        3.99862961202369
H            7.54884105323267       -0.13809301531025        3.78991299916181
H           10.73157436156740        3.21223548736284        4.87800771356357
H           10.03436902204479        3.87911718461737        6.30637726071622
H            5.43712155747493       -0.25247078779994        4.21055285721038
H            4.48936847540552        0.47950814036005        7.93466649452249
H            2.57714788637443        0.25813367231024        5.57368158076838
H            2.73260986657733        2.86981142521912        5.94940967875807
H            1.68132688780110        1.88054702665299        6.99652742688164
H            4.28510440587816        2.66351950089394        7.72373639657886
H            2.63202069314606       -0.70374957041185        8.34703335826153
