77

N         -0.001684       0.050801       0.381024
C          0.034896       1.453417       0.123292
C          1.215067      -0.630252       0.372219
C         -1.217881      -0.591368       0.285822
N          1.182871       2.058367       0.001387
N         -1.100593       2.107546      -0.008283
N          2.340434      -0.001887       0.222620
N          1.156896      -1.970418       0.520840
N         -2.312553       0.064135       0.036749
N         -1.223535      -1.932531       0.447001
C          2.298845       1.325733       0.076689
C         -0.049291      -2.552152       0.842150
C         -2.219658       1.401128      -0.045792
N          3.512070       1.931030      -0.033711
N         -0.086979      -3.885479       1.214181
N         -3.415391       2.026784      -0.212722
C          3.794322       3.332739       0.085636
C          4.659666       1.212019      -0.158208
C         -3.634209       3.440008      -0.247516
C         -4.487547       1.244035      -0.382275
C          0.918002      -4.563312       0.303804
C         -1.038705      -4.514519       0.228547
N          4.978553       3.800635      -0.143455
N          5.793982       1.650098      -0.282734
N         -4.932397       3.880767      -0.220187
N         -5.438450       0.635413      -0.560903
N          2.016604      -3.973573       0.024421
N         -2.097100      -3.903097      -0.141815
C          6.069830       3.039510      -0.433083
C         -6.037884       3.412646      -0.038457
C         -0.048289      -5.446084      -0.306697
N          7.213870       3.394980      -0.792911
N         -7.163017       3.258897       0.343150
N          0.029376      -6.528461      -0.947707
C          2.795027       4.192750       0.525757
C         -2.659241       4.328359      -0.330047
C          2.328280      -2.773777       0.395430
C         -2.399427      -2.688072       0.213499
C          1.609694       4.752176       0.577025
C         -1.411127       5.090545      -0.387433
N          2.661690       5.648372       0.887498
N         -2.550791       5.725679      -0.357560
H          7.364933       4.381364      -0.951383
H         -7.960950       2.886584      -0.130236
H         -0.856227      -6.931236      -1.233181
H          2.895051       6.321774       0.153342
H         -3.077766       6.576958      -0.352709
H          0.550733       4.730970       0.436920
C          3.289797       0.203189       5.870202
C          2.064806      -0.222707       5.486428
N          0.970008       0.006751       6.242752
C          1.082140       0.717265       7.489399
O          0.084127       0.901390       8.149908
N          2.301199       1.129042       7.846168
C          3.366014       0.894732       7.118151
N          4.541352       1.344415       7.583381
C         -0.307366      -0.541961       5.847160
C         -0.757837      -1.705557       6.776223
C         -1.966874      -1.156932       7.538136
C         -2.461569      -0.050743       6.585203
O         -1.313944       0.419232       5.880452
C         -3.144278       1.131471       7.296350
O         -2.636857       1.401899       8.564279
O         -2.911288      -2.156029       7.777311
F         -1.068840      -2.787189       6.019167
F          0.249360      -2.120380       7.580233
H          4.165040       0.022202       5.271818
H          1.908933      -0.766811       4.564181
H          5.405963       1.130483       7.120885
H          4.549806       1.779332       8.489817
H         -0.195764      -0.941959       4.825070
H         -1.584783      -0.709442       8.465330
H         -3.158149      -0.500876       5.860736
H         -3.054424       2.000104       6.629175
H         -4.205176       0.900333       7.433035
H         -1.671310       1.508595       8.501491
H         -3.540084      -1.829852       8.430255