77
 energy: -168.416128900622 gnorm: 0.001842088632 xtb: 6.7.1pre (5071a88)
N           -0.30287600847369        0.07940269357477        1.46970830825618
C           -0.26490369034003        1.49628210462404        1.33237764201740
C            0.77680215709844       -0.59417525427102        1.86642401701821
C           -1.47395565383921       -0.52959801591265        1.01322208383273
N            0.91502901758541        2.10245052416632        1.52442850053015
N           -1.31138552321594        2.16436710638977        0.96293784400515
N            1.91237860007675        0.08126189997566        2.32808044404329
N            0.73418521006142       -1.95820204704787        1.94224356673770
N           -2.50464783614273        0.15198111163786        0.64835784976455
N           -1.46897427142162       -1.90706407617565        1.02342744481264
C            1.92129421962972        1.44648170029845        1.98110165606040
C           -0.51260548274185       -2.52055384893105        1.78031198985529
C           -2.42422362863793        1.48848823128014        0.68400789201710
N            3.14197253380719        2.02270377824292        2.10725168450464
N           -0.68951907289938       -3.80235927574405        2.15939335295064
N           -3.57070148614019        2.17411151570739        0.38716110196109
C            3.54939872699045        3.27890974756622        1.54924471165872
C            4.12360624752090        1.41957757334334        2.89633899720198
C           -3.63562945022782        3.60451462037563        0.33647010812576
C           -4.70788336870798        1.50999989626633        0.20841774018919
C            0.55177839252320       -4.58836802973904        1.75700939249657
C           -1.28349179288220       -4.53253042880344        0.98700521901130
N            4.79238509782501        3.59888062152854        1.50525097624668
N            5.34559744709205        1.74920811440554        2.87758291788965
N           -4.79343626513749        4.20992505232134        0.75005521661818
N           -5.72871624125608        1.01915627403170        0.04049369624735
N            1.69035044926428       -4.00956908746821        1.80934959680762
N           -2.07481035250307       -3.91258205946542        0.19595789189090
C            5.76593226775898        2.76581187618451        2.02166682676383
C           -5.84771417443529        3.83278446817332        1.21844665132115
C           -0.19043820290191       -5.50830342005987        0.92327107972726
N            7.00702616156845        2.91020680803262        1.83061948241577
N           -6.83636625889923        3.74588352431303        1.89000770388766
N            0.07398895118866       -6.63225309334817        0.41551814408590
C            2.58186818895990        4.15277556383737        1.05948315018416
C           -2.63042772097496        4.31570331324815       -0.13724939202432
C            1.88149650399113       -2.75524498140402        2.12392967720612
C           -2.47481794320863       -2.68337754550565        0.39573509456755
C            1.49986552778196        4.61125596726184        0.48420781900759
C           -1.34499424488696        4.75421355993090       -0.68175911833713
N            2.54102813712735        5.56751087268269        0.53471569054818
N           -2.23955555288659        5.64312771722800       -0.33272329624304
H            7.22954524219364        3.69412627860279        1.22554141349408
H           -7.76843028839407        3.49148354787366        1.63571663841196
H           -0.67698200560277       -7.06804425451683       -0.10685667254293
H            3.02672489449624        5.74179121648375       -0.34818217557860
H           -2.52021808897454        6.59519113261166       -0.20616630935835
H            0.49573860617863        4.50598157629020        0.11910762612179
C            3.64038340923681        0.52241113817269        4.00154240264947
C            2.40159526063036       -0.31282901261403        3.66555258101447
N            1.37012656683775       -0.14782377625711        4.66002985982338
C            1.05610009640191        1.20620042454418        4.96333032840653
O           -0.08008972579971        1.61710145979910        4.94379161087803
N            2.13262579263505        1.93024233197743        5.34627613445858
C            3.33167239849403        1.54222880771907        5.09535973536147
N            4.38139858613398        2.08063646071504        5.70426830674502
C            0.36425525231732       -1.14881319228277        4.84838394011364
C           -0.14420105033320       -1.16263471222038        6.31479769428850
C           -1.58997675256750       -0.65616894819239        6.24536041564506
C           -1.98017930302203       -1.05949616108666        4.81083423887177
O           -0.78116499489825       -0.95362232976905        4.04004900092993
C           -3.06120478772031       -0.18417633412131        4.17395687856299
O           -2.84925910002902        1.18878416710057        4.32622981002124
O           -2.37351622232559       -1.24632545261600        7.23235024117588
F           -0.07378869393697       -2.42324591046596        6.79988531023506
F            0.64468297589692       -0.42360622516950        7.12794860748026
H            4.46997909226917       -0.11149383345957        4.31858354782771
H            2.64708973338578       -1.38679664219841        3.56186010168372
H            5.30943161712610        1.93506107404740        5.33389297750109
H            4.22124551155318        2.80388891272713        6.38713386099095
H            0.81711069687353       -2.12832612232262        4.62878518552782
H           -1.55402924116136        0.43881993213615        6.33507766301814
H           -2.30953772022277       -2.10956526554746        4.81540974522276
H           -3.13318763011643       -0.45722035705887        3.11011137844731
H           -4.02427044590402       -0.41213506711871        4.64130536281576
H           -1.89791485659465        1.38713290841949        4.33156405184051
H           -3.21566243953677       -0.78155484509179        7.29038115348489
