75
carrier
C     -3.00151705    -0.44451107     8.60827186
H     -2.40472500     0.30240366     9.03930803
C     -3.66646271    -1.27442827     8.04824400
C     -4.50043774    -2.31843694     7.58336950
C     -4.73137729    -2.58687762     6.20638407
C     -4.13915330    -1.83189735     5.16404263
C     -3.20765710    -0.72053660     5.45634754
C     -1.84658709    -0.93836278     5.48832191
F     -1.33863007    -2.16208786     5.25127061
C     -0.95678277     0.13089881     5.68607672
N      0.36749923    -0.07670910     5.55294553
C      1.12787284     0.99749338     5.56568051
O      2.43295911     0.89235846     5.31677302
C      3.05475109    -0.37758242     5.47966153
H      3.68269183    -0.53259281     4.59816570
H      2.28954785    -1.15578710     5.54363285
C      3.94009874    -0.40810285     6.74258013
C      3.21968404     0.23159625     7.93717838
H      3.53480832    -0.23596068     8.87139051
H      2.13613761     0.16075237     7.86330900
C      3.73371819     1.66700747     7.91670188
H      3.16089792     2.30160392     7.23414170
F      3.66034027     2.25650152     9.16009113
C      5.18124287     1.50620853     7.45972459
H      5.56750664     2.40354167     6.96973934
H      5.80135668     1.29325542     8.34273726
N      5.14805225     0.40286642     6.51567954
C      6.29818724    -0.48786757     6.54785895
H      7.18109327     0.03474567     6.91386513
H      6.49547098    -0.83223228     5.52741699
C      5.87782193    -1.67098468     7.42455930
H      6.47966211    -2.55948898     7.25417734
H      5.94486344    -1.40001723     8.47963672
C      4.42026209    -1.84954506     7.00831390
H      4.36630652    -2.43237052     6.08883469
H      3.81373201    -2.34207320     7.76481182
N      0.72953670     2.24512765     5.79124784
C     -0.55463739     2.48237254     6.08041084
N     -0.86998250     3.72011788     6.46458909
C      0.08938462     4.79878228     6.33029636
H     -0.38376434     5.59449864     5.74792253
H      0.96290532     4.42245065     5.80360766
C      0.46562661     5.34869439     7.71112932
H      1.22922255     6.11988880     7.60409851
N     -0.76280312     5.89410491     8.27045164
H     -0.57024796     6.44702900     9.09947062
C     -1.48458110     4.68196633     8.61685069
H     -2.34055248     4.89981928     9.25780862
C     -0.44572991     3.74852217     9.27825767
H     -0.66662411     2.70016992     9.08313725
H     -0.43844843     3.89618296    10.35764397
C      0.88304252     4.19090884     8.64420479
H      1.35120694     3.39026885     8.07888822
H      1.59126066     4.53187518     9.39711012
C     -1.99732731     4.06213987     7.30146135
H     -2.62708163     4.79502636     6.78811650
H     -2.58078116     3.17563360     7.54085954
C     -1.51739526     1.41412676     5.92656173
C     -2.90927369     1.52773284     5.78693697
H     -3.39780466     2.49146144     5.78382152
N     -3.70717604     0.51776328     5.55061478
C     -4.38712947    -2.12685037     3.85074184
H     -3.92757699    -1.56016018     3.05408551
C     -5.24530262    -3.18719077     3.49827395
O     -5.44377622    -3.40167304     2.18246000
H     -6.01365164    -4.16804904     2.04246006
C     -5.82941177    -3.93947203     4.48727580
H     -6.48566408    -4.76134915     4.23423593
C     -5.59041937    -3.66038886     5.84682661
C     -6.19446383    -4.43651841     6.85905072
H     -6.84441787    -5.24930778     6.57253733
C     -5.96716313    -4.17160632     8.18039472
H     -6.41986698    -4.75372654     8.96752032
C     -5.12335631    -3.11504053     8.52560917
F     -4.91665330    -2.87563141     9.83823540
