48
drug
P      0.89914623    -1.03933121     3.13543095
C     -0.76235641    -1.36092465     2.41856681
N     -0.86359360    -2.60703692     1.88213958
C     -2.01196527    -3.17372803     1.36597108
N     -2.01474118    -4.34238724     0.85004452
C     -0.97043533    -5.14374366     0.87197989
C     -0.31299718    -6.03060123    -0.07954128
N     -0.67124409    -7.02046546    -0.75937261
H      0.02087396    -7.41967936    -1.38153224
C      0.81425112    -5.12115570     0.15369804
N      1.55393099    -4.30806342    -0.55254219
C      2.02381841    -3.20764453    -0.07936923
N      1.41178655    -2.60356237     1.00919125
C      0.33454836    -3.26813742     1.62668080
N      0.25948400    -4.59090574     1.40265309
C      1.69402788    -1.36576105     1.47965862
N      2.46389720    -0.55453081     0.81928088
C      2.57835227     0.73086688     1.18913623
N      3.66855288     1.37949725     0.65228244
C      4.43763612     0.88575043    -0.32749395
N      5.23396135     1.47990846    -1.03633438
C      5.28979637     2.91695121    -1.00945801
N      5.75898482     3.51194735    -2.00408161
H      5.76245962     4.52141490    -1.98296215
N      4.80752569     3.40067567     0.15951314
C      4.10665659     2.70410339     1.00028304
C      3.85054775     3.15458539     2.28696045
N      4.02685349     4.39047461     3.11449874
H      3.48250122     5.20327164     2.81827174
C      3.26317852     3.23774977     3.45836777
H      2.71049111     2.84416045     4.27568641
N      1.67619198     1.41520112     1.83618810
B      0.73174133     0.81058125     2.62418335
N     -0.58333559     1.45006864     2.88565155
C     -0.81715660     2.70329636     3.20040231
N     -0.66838692     4.07842083     3.01336929
H     -0.41709287     4.38899825     2.07195064
C     -1.98457130     3.42108887     3.23410641
C     -3.12987154     2.87047418     2.68527586
N     -4.23614516     3.36469967     2.29899782
C     -5.36561355     2.62101520     2.06187836
N     -6.39590367     2.91945782     1.42514394
H     -6.42192229     3.83190303     0.99130288
N     -5.28425461     1.36495853     2.72743441
C     -4.19116628     0.86330059     2.94750919
N     -2.98417922     1.37103645     2.78658455
C     -1.77157399     0.70479296     2.72379578
N     -1.78504235    -0.54546992     2.36975393
