60
 energy: -137.749208297823 gnorm: 0.001225392148 xtb: 6.7.1pre (5071a88)
N            0.37255298997830       -0.09286266739338        0.42443950838350
C            0.29071054843099        1.30556895292227        0.19124006985222
C            1.54854866496611       -0.73278765445909        0.05491693604090
C           -0.76329086279861       -0.75528354255891        0.80976185422444
N            1.34753243151844        1.95961742562678       -0.19093217931173
N           -0.86447862228195        1.91648094348139        0.36204915193045
N            2.58792602818239       -0.06045944154910       -0.32172640172183
N            1.53683683861514       -2.08713241889815        0.12030622363677
N           -1.90656194847933       -0.13669201969073        0.94982753776793
N           -0.66801991562997       -2.08275578778407        1.02596621229837
C            2.48473374513097        1.27327292033258       -0.33801034847444
C            0.55828868146227       -2.69429838151003        0.87487954494056
C           -1.90413036421025        1.18511468919076        0.73494134794589
N            3.63333068543199        1.95753111054061       -0.55967021941359
N            0.69791762906809       -4.02432052443142        1.20219183760424
N           -3.09660730368235        1.80574925744642        0.92294640474915
C            3.87387858840817        3.32945107277976       -0.19736133649643
C            4.77075093380067        1.39063072390987       -1.03122070328174
C           -3.24644327243447        3.23664437940172        0.83909703966849
C           -4.15194549098303        1.08887332845446        1.30939446824969
C            1.19953949175102       -4.65652631724221       -0.08462771897982
C           -0.58656001278426       -4.65981739003926        0.74513245453725
N            4.92415797152736        3.95399556758973       -0.62753489835943
N            5.81619327753979        1.95138046076717       -1.31292646320154
N           -4.30911890207493        3.73521205844992        0.14130836222925
N           -5.08056824324456        0.51194443623667        1.64216877308334
N            2.06920660612656       -4.05158911701698       -0.79819960249724
N           -1.70132452868951       -4.06260330568176        0.93415796533061
C            5.94214178213062        3.37814852898739       -1.31048679851834
C           -5.28500500374316        3.27821736825280       -0.41569521327340
C            0.06339353905036       -5.54043591620846       -0.22302003633337
N            6.91764742019908        3.89206776519506       -1.89980365219605
N           -6.39916546948305        3.07489357887721       -0.80369534596440
N           -0.14869314842635       -6.59543952454773       -0.88056740420910
C            3.02293195069070        3.93350789002746        0.71868435453733
C           -2.35842575169066        4.00230971505788        1.43749906626039
C            2.52493556588425       -2.86198500907074       -0.54055132899050
C           -1.81394446666587       -2.85010902584398        1.39592835347479
C            1.91026239183307        4.22868522543969        1.34683446287545
C           -1.19556612458487        4.41542276820920        2.22712215285806
N            2.88756361583559        5.26017447256692        1.40941474905850
N           -1.97409262670442        5.31583139866788        1.68780815224569
H            6.95604590859577        4.89994080171225       -1.94719561789690
H           -6.75649892272390        2.83139422506310       -1.70351785602906
H           -1.05653864790684       -7.02400615498636       -0.73967000954290
H            2.71850617696858        6.06149085026149        0.79582909217935
H           -2.23328613658422        6.27505024838551        1.56091078776962
H            0.92257390172675        4.02313267106428        1.68994967186004
C           -1.47753118881194       -0.81207176803418        4.01802837615120
C           -0.22142086933536       -0.48051148263955        3.65645387539288
C            0.14412974511441        0.88724650067954        3.30419204026545
O            1.18627861956561        1.24810312335737        2.80082467399429
N           -0.88978808747131        1.77567032652741        3.54221935479647
C           -2.19230913252068        1.48444326029933        3.88422273763302
O           -3.05001891414131        2.32882261306809        3.94369807862001
N           -2.43164324003389        0.14898913920034        4.13129740581264
F            0.72415350512646       -1.42744024547153        3.51437895741565
H           -1.76558159790346       -1.83560333743329        4.20247036966372
H           -0.71191003939036        2.76014747005425        3.30942238013984
H           -3.39220039924794       -0.11042523565140        4.31677334921915
