12

C          0.487239       1.282588      -0.058631
C          1.347610       0.250441       0.002332
C          0.891119      -1.140348       0.066699
O          1.575306      -2.128045       0.123509
N         -0.501244      -1.217773       0.055245
C         -1.424811      -0.197904      -0.005803
O         -2.614307      -0.374611      -0.010074
N         -0.858873       1.061458      -0.062410
F          2.669678       0.475170       0.005665
H          0.824870       2.306333      -0.105993
H         -0.891328      -2.154104       0.097669
H         -1.505259       1.836794      -0.108206