123

N         -0.001684       0.050801       0.381024
C          0.034896       1.453417       0.123292
C          1.215067      -0.630252       0.372219
C         -1.217881      -0.591368       0.285822
N          1.182871       2.058367       0.001387
N         -1.100593       2.107546      -0.008283
N          2.340434      -0.001887       0.222620
N          1.156896      -1.970418       0.520840
N         -2.312553       0.064135       0.036749
N         -1.223535      -1.932531       0.447001
C          2.298845       1.325733       0.076689
C         -0.049291      -2.552152       0.842150
C         -2.219658       1.401128      -0.045792
N          3.512070       1.931030      -0.033711
N         -0.086979      -3.885479       1.214181
N         -3.415391       2.026784      -0.212722
C          3.794322       3.332739       0.085636
C          4.659666       1.212019      -0.158208
C         -3.634209       3.440008      -0.247516
C         -4.487547       1.244035      -0.382275
C          0.918002      -4.563312       0.303804
C         -1.038705      -4.514519       0.228547
N          4.978553       3.800635      -0.143455
N          5.793982       1.650098      -0.282734
N         -4.932397       3.880767      -0.220187
N         -5.438450       0.635413      -0.560903
N          2.016604      -3.973573       0.024421
N         -2.097100      -3.903097      -0.141815
C          6.069830       3.039510      -0.433083
C         -6.037884       3.412646      -0.038457
C         -0.048289      -5.446084      -0.306697
N          7.213870       3.394980      -0.792911
N         -7.163017       3.258897       0.343150
N          0.029376      -6.528461      -0.947707
C          2.795027       4.192750       0.525757
C         -2.659241       4.328359      -0.330047
C          2.328280      -2.773777       0.395430
C         -2.399427      -2.688072       0.213499
C          1.609694       4.752176       0.577025
C         -1.411127       5.090545      -0.387433
N          2.661690       5.648372       0.887498
N         -2.550791       5.725679      -0.357560
H          7.364933       4.381364      -0.951383
H         -7.960950       2.886584      -0.130236
H         -0.856227      -6.931236      -1.233181
H          2.895051       6.321774       0.153342
H         -3.077766       6.576958      -0.352709
H          0.550733       4.730970       0.436920
C         -3.166099       0.423777       5.884040
C         -3.659467       1.385821       6.407789
C         -4.332038       2.554749       6.833428
C         -4.805243       3.420568       5.865870
C         -5.560944       4.553179       6.170368
C         -5.879440       4.807165       7.474485
C         -5.427955       3.961837       8.509733
C         -5.793895       4.210778       9.846776
C         -5.375753       3.380660      10.855290
C         -4.524464       2.301294      10.557952
C         -4.124790       2.050364       9.271186
C         -4.605755       2.844768       8.199004
C         -3.124597       0.981817       9.066686
N         -3.468602      -0.266676       9.406906
C         -2.607582      -1.238281       9.245706
C         -1.311903      -1.063210       8.740855
C         -0.869047       0.274567       8.537421
C         -1.836264       1.288147       8.676624
F         -1.481592       2.569330       8.467448
N          0.412699       0.586712       8.274302
C          1.260511      -0.415178       8.283750
N          0.960196      -1.712643       8.382025
C         -0.306410      -2.074506       8.522134
N         -0.573040      -3.394162       8.496077
C         -1.792253      -3.961669       7.967673
C         -1.479173      -4.704697       6.654252
C         -0.694762      -3.782939       5.691488
C          0.775762      -4.055445       6.049991
C          0.672853      -5.074952       7.204065
C          0.519634      -4.347203       8.543257
N         -0.575960      -5.794452       6.987714
O          2.557250      -0.191738       8.125654
C          2.970369       1.157903       7.985050
C          4.448726       1.173291       7.570941
C          4.928905       2.620389       7.336683
C          6.326418       2.638138       7.950793
C          6.142942       1.693912       9.142087
N          5.268018       0.633001       8.669826
C          5.928765      -0.585245       8.237617
C          5.136322      -1.058232       7.020606
C          4.688366       0.245892       6.370754
F          5.929063      -1.803411       6.172054
O         -5.722856       3.560264      12.154043
F         -4.553723       3.164612       4.564181
H         -2.708999      -0.437907       5.498663
H         -5.894156       5.189285       5.365557
H         -6.489894       5.660549       7.728560
H         -6.419570       5.066617      10.063739
H         -4.172470       1.684770      11.369048
H         -2.948235      -2.204709       9.590800
H         -2.523820      -3.181291       7.769041
H         -2.203181      -4.679621       8.684460
H         -2.411279      -5.081410       6.228939
H         -0.908288      -4.046856       4.655701
H         -0.963983      -2.737869       5.838689
H          1.313339      -4.488476       5.206877
H          1.299528      -3.158278       6.371988
H          1.519597      -5.760471       7.254663
H          1.429703      -3.808685       8.800135
H          0.284458      -5.086507       9.314899
H         -0.487118      -6.435763       6.205269
H          2.348541       1.659055       7.235317
H          2.842739       1.674198       8.942068
H          4.920626       2.881213       6.280540
H          4.280127       3.315895       7.869884
H          7.056590       2.224155       7.253260
H          6.649775       3.634020       8.244323
H          5.637005       2.220034       9.958403
H          7.078566       1.284395       9.522289
H          6.970847      -0.414760       7.928045
H          5.922881      -1.319217       9.047315
H          4.290141      -1.690587       7.299526
H          3.802325       0.125338       5.752274
H          5.505226       0.621572       5.751904
H         -6.294209       4.333014      12.241140