123
 energy: -235.308689012717 gnorm: 0.002217446066 xtb: 6.7.1pre (5071a88)
N           -0.06151404887082        0.07303056751119        1.36965188118318
C           -0.03536621275259        1.46160477305196        1.05184024206061
C            1.14467362826959       -0.61707038342034        1.30079642257129
C           -1.28827508016047       -0.55797897732673        1.37617394024019
N            1.11043669300392        2.05420950260415        0.84256004068538
N           -1.16637566744553        2.11958704845152        0.95084094090192
N            2.26622173183411       -0.00070731857698        1.07719736610496
N            1.09085267564164       -1.95646906387589        1.45062777091339
N           -2.39332276794517        0.10402373991552        1.21193316631292
N           -1.29168137330422       -1.90243746032116        1.52600654854638
C            2.22402850725538        1.32103332797833        0.89423229851725
C           -0.09812324476320       -2.54113976053370        1.82439137152388
C           -2.29820033924211        1.43397858986184        1.05857389852593
N            3.43403540672973        1.91299096517279        0.70912170127269
N           -0.12579855365767       -3.89291315403517        2.14637197968869
N           -3.48587386885464        2.07593727329227        0.95481855176060
C            3.69958024588734        3.30494608145665        0.48839936175068
C            4.58874469524472        1.19618298638244        0.79937480757067
C           -3.65850507866222        3.48619005105835        0.78218172340108
C           -4.59833646163620        1.34682649117503        1.08408704359901
C            0.82322246599216       -4.53418392971778        1.15136852369859
C           -1.13393950216082       -4.46690371848434        1.17660779390864
N            4.87581536689966        3.70415360688251        0.12497176485813
N            5.72076275286095        1.59973989918342        0.55885687979247
N           -4.88151223839210        4.02145351394205        1.09530168485471
N           -5.59458602825539        0.79194652241674        1.16487097073728
N            1.91258583345172       -3.94187307960126        0.84328940646686
N           -2.21157481717290       -3.83898670747246        0.90331196458180
C            5.95811019197829        2.88455058331051       -0.00088567777252
C           -5.88939687039943        3.64962103658287        1.65943861094318
C           -0.18177767034017       -5.37923776954388        0.54986581738341
N            7.07390152079188        3.12698645747081       -0.51496391732929
N           -6.86398743905198        3.64220155926753        2.35736093208496
N           -0.14765912700463       -6.43944545680991       -0.13112266204993
C            2.69691245876278        4.24313001194189        0.70383881575583
C           -2.71054629612363        4.27148404198612        0.30335893724363
C            2.24976664475660       -2.75838273572182        1.24471443078956
C           -2.48567418854438       -2.63992120719045        1.33570436970853
C            1.50697317251101        4.79008189772187        0.62150778957915
C           -1.49856051159016        4.87739663679092       -0.25029686790993
N            2.55508904395531        5.74127134402567        0.63050089200071
N           -2.53261047996593        5.63010317939313        0.02081599306012
H            7.18908695950963        4.03455037006432       -0.94468980603828
H           -7.76056512943139        3.22837801909564        2.20682209354922
H           -1.05140191639803       -6.81792033402567       -0.39237850378101
H            2.76696237854078        6.17398599898222       -0.27142039730889
H           -2.97031090984723        6.52922269234131        0.06472965841315
H            0.44412771725256        4.72439607411108        0.52388737275358
C           -3.00045512031585        0.04028598823777        5.19619890163758
C           -3.39695949737422        1.08076936742350        5.64894894848716
C           -3.98951812566370        2.33255953484471        5.93842822147596
C           -4.25587832165819        3.17381982025182        4.87743814151171
C           -4.98494406329642        4.35460753176714        5.00355193911002
C           -5.48918358255533        4.68620202787161        6.22975740181791
C           -5.22827279106880        3.88732194116598        7.36318657274247
C           -5.76282722323728        4.22957267679096        8.62034798006120
C           -5.51733177333321        3.45255991274266        9.72484580070215
C           -4.66548110890687        2.33821587842621        9.61481838077935
C           -4.10545293900105        1.99558580685359        8.41154533878420
C           -4.42187426289736        2.72427691299311        7.23577045946919
C           -3.08875605389730        0.92748359478760        8.39747084862361
N           -3.42199881774129       -0.27080053992586        8.89312244130034
C           -2.55044326872562       -1.24646872935484        8.85571937562792
C           -1.26183170177921       -1.12319540753471        8.32035893697471
C           -0.81554972913545        0.19052327837328        7.99825970929097
C           -1.79178895670660        1.20367536940165        8.00939078529290
F           -1.43695082479693        2.46063652760631        7.67496454371255
N            0.47025326424488        0.47985275415586        7.73233718499031
C            1.31624667566242       -0.51913365405302        7.86033880518135
N            1.00290309781616       -1.80562508409207        7.99947590394898
C           -0.27280384193782       -2.15426450268791        8.11245328545811
N           -0.56591602792315       -3.46152849977804        8.02341194699371
C           -1.83624868173912       -3.96945138776256        7.55476196690736
C           -1.65464682746407       -4.53513357952403        6.13320333822759
C           -0.95193625152278       -3.48550048238296        5.24178787214119
C            0.54120767918102       -3.81214239298827        5.40842064494942
C            0.53470526684997       -4.97022894174139        6.42872804593102
C            0.50868977529319       -4.42454663766807        7.86325218421243
N           -0.73547878190304       -5.65639964948418        6.23241827979499
O            2.62066792136149       -0.29409235042101        7.76882922825348
C            3.02085395968267        1.05285036691177        7.57770146519157
C            4.54367897057863        1.10117601740573        7.38483012678921
C            4.98868661985176        2.53442183276041        7.02511059712870
C            6.26328341667535        2.73315217918283        7.84162597945183
C            5.93862626427887        1.93781326170651        9.10901009091485
N            5.20721984609052        0.76734501131773        8.65576119660998
C            5.97842897143481       -0.45181796903331        8.50763544593856
C            5.40659354368156       -1.13513667713183        7.26627297522026
C            5.00664966435190        0.03855909369135        6.37779274078377
F            6.35492428393410       -1.93086840832516        6.66398573767888
O           -6.02920667906550        3.72572693712600       10.94880318002643
F           -3.80557849408891        2.83489959346109        3.64160438465820
H           -2.65544912106343       -0.89899422869672        4.88091349475007
H           -5.16681386074569        4.95481554992348        4.12682067950577
H           -6.09670073995973        5.57082611917837        6.34477438241456
H           -6.37526283424768        5.11813593205974        8.69959195168529
H           -4.43565987778733        1.77232076764910       10.50285427277844
H           -2.87637425653111       -2.16562290834202        9.32396738475345
H           -2.58385009221391       -3.17992959934230        7.52694275636758
H           -2.17194469556441       -4.77210531592781        8.21770869571833
H           -2.62484452184780       -4.85102932308116        5.74549946726736
H           -1.26828242416068       -3.60197962536380        4.20650306657265
H           -1.18469234958768       -2.47177858708565        5.56761926586246
H            0.97217105388083       -4.14219515460125        4.46334692275938
H            1.11900507808704       -2.96741218769071        5.77810648270930
H            1.37609720063674       -5.65390673828710        6.31114935973095
H            1.44715101299531       -3.93295340103609        8.11205960487836
H            0.32027844815106       -5.25617470111886        8.54834155605824
H           -0.72357503497497       -6.18343084449538        5.36427965521523
H            2.50668109065090        1.46817441986927        6.70339463588783
H            2.73593093898531        1.64227521251701        8.45561011476437
H            5.14446889130803        2.65036019459147        5.95453184786103
H            4.22831926402753        3.24859492328487        7.34396031950287
H            7.11834932829206        2.28940238406093        7.32937908286407
H            6.48033733327922        3.77959340838223        8.04201069221961
H            5.28195451899785        2.52520761980362        9.75937730684582
H            6.82030930773939        1.64692386154079        9.67910973903628
H            7.04680768957715       -0.25549969958729        8.33388404727817
H            5.88032565462595       -1.06768263972960        9.40516351824647
H            4.55489963383871       -1.77754937506477        7.50328056673939
H            4.23393373950480       -0.22502656637483        5.66004956616980
H            5.89089800168807        0.37995142572358        5.83687545373646
H           -6.57718411976368        4.51950696736158       10.91256684851658
