77
 energy: -168.302137750622 gnorm: 0.003328595771 xtb: 6.7.1pre (5071a88)
N           -0.00417354948782        0.04853125967464        0.39485199171220
C            0.03274268896408        1.45283405194990        0.14369538543345
C            1.21456709842350       -0.63167152254893        0.38244501817806
C           -1.21949771328305       -0.59314728429418        0.28969536196200
N            1.18007222499949        2.05960970900249        0.02934915203558
N           -1.10313859111281        2.10914073797432        0.01589339569116
N            2.33932285779241       -0.00191687151016        0.23593274658993
N            1.15640261196197       -1.97302545283339        0.52601196916285
N           -2.31330333443442        0.06404076510778        0.03948957788674
N           -1.22444821429311       -1.93548124215352        0.44600799023286
C            2.29800699702907        1.32584439438877        0.09344911709272
C           -0.05022411176946       -2.55465426663023        0.84588747053824
C           -2.22097107876898        1.40088321379510       -0.03471741792112
N            3.51111982368506        1.93173044394088       -0.01785481393125
N           -0.08937330543382       -3.88742691018613        1.21383445906826
N           -3.41668314803044        2.02623301186179       -0.20728666031493
C            3.79424938432524        3.33405802410680        0.09765490657298
C            4.65989876940902        1.21804973815168       -0.14363178740299
C           -3.63570139579119        3.44006840143411       -0.24637429225383
C           -4.48671097100655        1.24325952642273       -0.38459774772526
C            0.91949981733425       -4.56633620689174        0.30795593619579
C           -1.03766918877469       -4.51925433958303        0.22630247619627
N            4.97777206302935        3.80261328532144       -0.13334402045182
N            5.79255572785910        1.65601391467991       -0.26940390528139
N           -4.93278705572484        3.88280167217947       -0.22620778278595
N           -5.43650923897457        0.63492020226026       -0.57148476173448
N            2.01578371276583       -3.97530004071866        0.02432142575730
N           -2.09135367894211       -3.90597876185865       -0.15318512730142
C            6.06990825470232        3.04433135648782       -0.42565768835313
C           -6.03679978787620        3.41632066053339       -0.03406027279483
C           -0.04553246585985       -5.45139879450545       -0.30398140345995
N            7.21105335132493        3.39636343103882       -0.79422543497630
N           -7.16318179091414        3.27983301097214        0.34735694678806
N            0.03634225611325       -6.53401277370124       -0.94308107053548
C            2.79222405159403        4.19302780275564        0.53569571075608
C           -2.66036098523262        4.32835999768000       -0.32718767875950
C            2.32513699314873       -2.77581325083945        0.39785002931402
C           -2.39386933240106       -2.68967652903818        0.19944618531156
C            1.60699683935804        4.75241344042889        0.57685481581315
C           -1.41418063811757        5.09184598027796       -0.37976426230921
N            2.66047768636344        5.65048380679672        0.89286130872970
N           -2.55471269072055        5.72685535161349       -0.36544508891142
H            7.36445636356944        4.38049528291194       -0.96070053407160
H           -7.96139028723110        2.88780762205223       -0.10691549654595
H           -0.84656900037181       -6.93987886732935       -1.23179684216229
H            2.90283759022187        6.31782519269790        0.15675915172746
H           -3.08230196728245        6.57735970683571       -0.37906668956573
H            0.54992574320787        4.73325244038578        0.42659513361229
C           -0.20595895068420        3.29274109721829        5.86186411594609
C            0.22675380128258        2.06888815087459        5.48245687295952
N           -0.00006368025231        0.97215868803719        6.23599753520530
C           -0.71341763704400        1.08367144028807        7.48672870505832
O           -0.89397134467228        0.08622976330283        8.14517835970770
N           -1.12941783737101        2.30242256779433        7.83880636902042
C           -0.89955694130240        3.36731561854913        7.11034996158185
N           -1.36032096282448        4.53956426669876        7.57275093010465
C            0.55298334823127       -0.30595691253845        5.84417901578127
C            1.70930754779752       -0.76069820296961        6.77954956901411
C            1.15511596365333       -1.97282998724020        7.53241535901168
C            0.05184737883812       -2.46370264371417        6.57236829321426
O           -0.40894547414121       -1.31002899216493        5.86098009509197
C           -1.13565833502928       -3.14171750067284        7.27854660981158
O           -1.40723892886910       -2.63988296004367        8.54967806233673
O            2.15392455025391       -2.91431932407508        7.77329278885062
F            2.79230210502740       -1.06543885273461        6.02524360844327
F            2.11521260476951        0.24512849392504        7.59013045521774
H           -0.02015492402123        4.16760038292070        5.26362167532121
H            0.77980829712899        1.91885484349180        4.56297555817103
H           -1.13736161802428        5.40479339005588        7.11618762120022
H           -1.78918332943859        4.54528963531258        8.48210190225118
H            0.96775440158983       -0.18880180259056        4.82694304776228
H            0.70302542916428       -1.59496585522230        8.45944634687437
H            0.50007564748987       -3.16065631319805        5.84838264206513
H           -2.00376355577850       -3.04712942051878        6.61166051845803
H           -0.90927460777755       -4.20313038764484        7.41162431009194
H           -1.51291879792812       -1.67525500627089        8.49475748745829
H            1.82918646458433       -3.55237749796925        8.41824930118796
