92
 energy: -210.201595689461 gnorm: 0.003428398474 xtb: 6.7.1pre (5071a88)
N           -0.23388977185055        0.07998914404101        0.47627097047161
C           -0.30033044371315        1.46324528277411        0.15820816003884
C            1.03098474956085       -0.50135208692148        0.50018594697782
C           -1.40402224028877       -0.64885004178856        0.42022037105298
N            0.79717916486018        2.14800467181716        0.00660163108055
N           -1.47827964296543        2.03168922893169        0.00798323157244
N            2.10453376655433        0.19827065232996        0.30789145406180
N            1.07302575129981       -1.83790437142322        0.70358529752237
N           -2.54815496499763       -0.08200182150431        0.17205588127524
N           -1.30764064625680       -1.98090376650661        0.62651541620356
C            1.96997248455442        1.51540342543628        0.11245637711066
C           -0.09272199775892       -2.49473999668330        1.04327049409104
C           -2.54944362647861        1.25079615575544        0.03525266467144
N            3.12766786134510        2.20293093907362       -0.04709650679863
N           -0.03371760267446       -3.80792884014985        1.46367277987374
N           -3.77453784604779        1.81605888480819       -0.10480420208382
C            3.20370615626040        3.50153506405768       -0.59976352706457
C            4.28569843268758        1.60659803753387        0.46354466162026
C           -4.00287672218611        3.23569294281075       -0.15059536436032
C           -4.85996035205059        1.03975131148694       -0.12740636873087
C            1.02054393378867       -4.45406208711413        0.58532430812820
C           -0.93795171630368       -4.55506030192055        0.51387755691745
N            4.30943875364109        3.96433098459472       -1.08923176261444
N            5.37392267351369        2.09094280825286       -0.07273014010473
N           -5.10972286026175        3.71900487433272        0.49756872711456
N           -5.84510846704922        0.46098629190557       -0.16253075072612
N            2.06845815411972       -3.79429642976020        0.27136444791849
N           -2.03139912607962       -4.03251649577612        0.11048198448864
C            5.39975687037344        3.12379131124788       -1.09276546037646
C           -6.02477220693353        3.23362911151103        1.13106757420201
C            0.12038519880238       -5.43295881533993        0.01947591586530
N            6.12599667627865        2.75874878826972       -2.26438012278810
N           -6.85050667355319        3.02303760677032        1.97297349851124
N            0.28074252698356       -6.53322473876052       -0.57342375378055
C            2.08879022320616        4.34585678344036       -0.63184803578709
C           -3.18933895039626        4.04059458851241       -0.80526353171874
C            2.28918897221310       -2.56156405437471        0.59646185865495
C           -2.42330924094603       -2.83094109223609        0.42033570732027
C            0.86637645860381        4.75642328348712       -0.82945263682180
C           -2.10079809260832        4.61203483077397       -1.60494297970010
N            1.81884181427342        5.79665104867022       -0.97296217698780
N           -3.00251311210381        5.39524792356346       -1.07070181869911
H            5.93329939235261        3.38722384703860       -3.04362958374512
H           -7.79503584643495        2.70748323904364        1.88911126777659
H           -0.57011672068981       -7.01813237894728       -0.83501656039007
H            2.01688673163676        6.07170408047127       -1.93849188425222
H           -3.36675511254947        6.31068508420691       -0.89256001211556
H           -0.18320764212839        4.57372690096934       -0.94196248500479
N           11.68834675124950        0.20855652014795        0.53797586827249
C           11.94170496706446        1.56614364659672        0.60088677882591
C           12.87034083511292       -0.61186943530089        0.55717294373516
C           10.43741802996943       -0.19265839505626        0.09780230013436
N           13.12092505378624        2.06624376052156        0.70116507896878
N           10.87808125649776        2.42091953377707        0.53823764584934
N           14.07256142092453       -0.09039009059693        0.59421859959475
N           12.63206962217617       -1.93349323883801        0.50914915858133
N            9.47540483084118        0.63564710078482       -0.11353834383615
N           10.31999124197107       -1.54203062326641       -0.11691352455950
C           14.17721864270720        1.21899373433180        0.68181644525394
C           11.31251713532923       -2.33970761095237        0.47917001893823
C            9.60591872996577        1.95131934390244        0.12639302632319
N           15.38955174436479        1.83745685944173        0.69862456176500
N           11.04439907765496       -3.62975803094970        0.64387589513447
N            8.72095808050608        2.85044883984448       -0.06994088781008
C           15.55808072248476        3.29433692148908        0.39076988156609
C           16.57591204250394        1.27630801483308        0.63101596401977
C            7.42281409686969        2.64382303757584       -0.29770757641476
C           12.02068610609094       -4.62136291272610        0.17867651883547
C           10.14513767924481       -4.23313576677897       -0.35911843393336
N           16.59619407616667        3.61390655538352       -0.37172295164769
N           17.63957982166942        1.63436307261726        0.21375490920664
N            6.77444077342321        3.54096708928460       -1.20485875069393
N            6.63981676507483        1.84368028690038        0.34571577693468
N           13.21501531619373       -4.11544082075059       -0.08750131294634
N            9.41767392276020       -3.41971994384934       -1.04750993252982
C           17.63849185466025        2.88996278096847       -0.66938608026035
C           11.02964520578661       -5.39555011340964       -0.55802529141101
N           18.61433107043493        2.94595676483791       -1.43712183227115
N           11.05075712983638       -6.50475366006080       -1.14350018278289
C           14.75819972584177        4.22887650762512        0.92855675812888
C           11.22431313286084        3.70462782461779        0.79959994018374
C           13.54504441952155       -2.90786863095497        0.05792893451831
C            9.22909485996381       -2.18717955969302       -0.68103980788095
C           13.55588983603454        4.80305450321074        1.54742422710838
C           12.21128155966986        4.49713381632188        1.09332892734533
N           14.51556309861660        5.58299167006842        0.76624499847557
N           10.81600073634323        5.08216846755402        0.97777601881645
H           18.68623194913721        3.68019275968296       -2.12097855669621
H           10.18530537732934       -6.81987974483235       -1.56303541912419
H           14.26401033301297        5.95619368715951       -0.14131379121592
H           10.65149238131094        5.57653046909136        0.09332541236897
H           13.59247946539487        5.04023020074776        2.61146256717624
