104
 energy: -238.974700735304 gnorm: 0.003458443719 xtb: 6.7.1pre (5071a88)
N            0.28691488246309        0.35347667197105        0.77999444180079
C            0.00392486608655        1.77083973997874        0.74925435502199
C            1.61967859467922        0.01203251936244        0.85181321998550
C           -0.75669576778852       -0.53098949158587        0.66197753012469
N            0.94054031006725        2.62353008536438        0.80364657329192
N           -1.27480031397168        2.13168416694543        0.65353225049530
N            2.57528628846092        0.83126970022263        0.90526323264067
N            1.88182745855360       -1.35672391394586        0.87549485981476
N           -1.97858805833019       -0.14075513900045        0.53735296650733
N           -0.43359146736724       -1.85916849731663        0.71532395135251
C            2.29234777434290        2.23261907085090        0.84474531378971
C            0.84834557876332       -2.21301252164101        1.04188813957244
C           -2.18789705986011        1.19945663624748        0.56420576805191
N            3.04767361635174        2.77316459993217       -0.26278171137455
N            1.11584588951329       -3.51953228774228        1.37350337796362
N           -3.49513165138657        1.57008740751343        0.50629723370552
C            3.03550127651182        4.13091065170039       -0.60021435251710
C            4.05424112039104        1.94875659192044       -0.68830262919451
C           -3.90734263779764        2.94824858454656        0.57472591566219
C           -4.46450740875010        0.65745746658159        0.49518896730274
C            2.29279931521169       -3.94159665859536        0.48808980178706
C            0.36076888099090       -4.32794082153027        0.38166599999908
N            4.07150537924528        4.71774203343492       -1.08806856424970
N            5.07584266488426        2.57537343965257       -1.25509271247290
N           -4.93726902707623        3.26468229699524        1.42148449572637
N           -5.36732412150090       -0.04491483466637        0.49673919713503
N            3.23511275452088       -3.10769644099232        0.22974521462290
N           -0.78238465035662       -3.94451102642987       -0.03207325903527
C            5.27050685910049        4.01586768924227       -1.19188474046527
C           -5.67178186319796        2.64504329785250        2.16160196464446
C            1.55577832818216       -5.00337283036000       -0.15753004511082
N            6.32745342195716        4.54982362619466       -1.98017036630292
N           -6.31312581040643        2.29228821494531        3.11163708427457
N            1.87168211599984       -6.01101683051849       -0.83448217458204
C            1.82411915478446        4.83775015013109       -0.52515954557727
C           -3.30876585904928        3.86044056713235       -0.16382386164003
C            3.15287973268110       -1.87003226146146        0.61039916358885
C           -1.39323461595184       -2.86795301443581        0.39615796287888
C            0.54342713524684        5.04872061310137       -0.60267770935124
C           -2.42718096425699        4.54254123259592       -1.11846394935561
N            1.31874550371745        6.25580997862799       -0.61393530609232
N           -3.29980211005897        5.22629325109494       -0.42133065610736
H            6.11964702966300        5.49455020435319       -2.30159636719458
H           -7.22292230573563        1.88004214025042        3.15134172104081
H            1.10791171614578       -6.60281198452151       -1.13781014359633
H            1.41087261449530        6.68120308382476       -1.54332931846469
H           -3.70327254822505        6.10140727102031       -0.15049282402694
H           -0.47138768084829        4.72286624426493       -0.70079773897250
N           11.48103317047277       -0.60046299201614        0.25921128476440
C           11.48399830342285        0.78303586107984        0.34864397883393
C           12.71397006752686       -1.21219170186415        0.62537073507971
C           10.41530989099772       -1.27140034276002       -0.27437745811283
N           12.54417855282709        1.48917347236346        0.55438027088712
N           10.23900709106416        1.39054091960877        0.12881966806827
N           13.77321714936279       -0.50533045060580        0.85332675042175
N           12.68837864560622       -2.56673642015502        0.72394893280240
N            9.40929580295437       -0.61409742905142       -0.85055342145347
N           10.45944054145758       -2.63634531354872       -0.22062806280294
C           13.69838477550699        0.81808089831329        0.76080924001241
C           11.41720676996458       -3.15341136142014        0.66171454889721
C            9.30835280373859        0.65393864834624       -0.71823788187490
N           14.89775136807851        1.48149680794034        0.85395511570538
N           11.31732851564843       -4.43345961211724        0.98589134258222
N            8.43686411859476        1.41920620737622       -1.36376439947427
C           15.13972882807024        2.86244465788897        1.15243361124380
C           16.06784169520749        0.83342548334752        0.70745972175771
C            7.23945371327861        1.63585160413377       -1.36376903232201
C           12.47052054960260       -5.32105339343091        0.81155622785845
C           10.68125215915543       -5.36440782848693        0.06690278330062
N           16.30403409679586        3.39589114336914        0.94551096921859
N           17.19027653916477        1.30469513874859        0.63405211192361
N            6.39756555587527        4.56172946341085       -0.51829172935992
N            6.10227283125590        1.81758249461705       -1.69047911049518
N           13.58269176744634       -4.70668785931219        0.43730244163301
N           10.17704943249510       -4.80623841758080       -1.02566213394654
C           17.41375426681466        2.71601113935307        0.56366348603710
C           11.68643176085007       -6.43027230861791        0.29099220793900
N           18.53206392286571        3.13012211305300        0.19228319714312
N           11.89490597627216       -7.64546623953279        0.10048169936789
C           14.14210488343762        3.61397341236097        1.75492610562494
C            9.92742753947941        2.56169174942133        0.62411419034085
C           13.70638957079253       -3.44795414228402        0.35317015844706
C           10.06952807901741       -3.54814280001689       -1.18062057257136
C           12.96164234957281        4.09037028535382        2.07310770199336
C           10.01314151954745        3.72581251320383        1.41515655339748
N           14.01689546082670        4.99851946223952        2.33004505612320
N            8.95186767508726        3.46416765600913        0.59656726982136
H           18.66355603167391        4.12817372082574        0.12196911106815
H           11.15801617402499       -8.18077742941688       -0.33995793232556
H           14.10205523154158        5.77633377000219        1.67290472192316
H            7.10544568972736        3.89713554715616       -0.19610463070408
H           11.89322805661058        4.03923460013706        2.13199135043263
C            5.79257500402847        3.36010654343013        3.84212988906951
C            6.68285516848938        2.66132178576161        3.11236371186065
C            6.29797675273070        1.98687482211296        1.86525828069869
O            7.07940316011878        1.39225023169597        1.15141469951346
N            4.95530908440733        2.08992212189264        1.56188684736860
C            4.12806392703481        2.73419497058353        2.29971190804695
O            2.82400834956869        2.82869938039321        2.06144976717790
N            4.48863859449035        3.40239946638466        3.43305663845759
F            7.96098758415125        2.57872269861944        3.51171069993880
H            6.06140080891982        3.88815900951306        4.74373529810276
H            3.97210253720087       -1.17996023921108        0.61573388683125
H            3.79001976401223        3.92822180835211        3.93998246683887
