77
 energy: -168.417863281099 gnorm: 0.003808124872 xtb: 6.7.1pre (5071a88)
N            0.36373350085291       -0.13522896639525        1.25927401532426
C            0.30728442427092        1.26087168469164        1.07210704969602
C            1.55950071267567       -0.68377656209042        1.85881089458435
C           -0.77579393982815       -0.86060845921261        1.04941065747304
N            1.39748775501836        1.96212622337091        1.05384365040342
N           -0.87345767168311        1.82883312374964        0.89248492660513
N            2.70102493573513        0.04062027259854        1.51617105031621
N            1.65804065140584       -2.07235961107704        1.41174106931298
N           -1.90285352668583       -0.30112692599001        0.74201386611493
N           -0.68359504889872       -2.21570193761279        1.12870178228180
C            2.55585608495200        1.29098466941745        1.20544216877246
C            0.52106366938756       -2.79681657129370        1.42676329716359
C           -1.92567484042698        1.04193936199298        0.81319403998945
N            3.72236861885031        1.98958848550246        0.99587986284781
N            0.61237367758288       -4.17701123736550        1.51570985715015
N           -3.15466018048214        1.61723907628303        0.77877086164286
C            3.84758863391675        3.35131280989941        0.58227181471721
C            4.92725465530613        1.44451131297673        1.29688983004001
C           -3.32945041637857        3.01478484599321        1.05761400501183
C           -4.26367203182646        0.88695375639747        0.65164553795546
C            1.70521303733943       -4.54752908910700        0.51848074630442
C           -0.23568811324138       -4.69045066987330        0.41279573589810
N            4.99817524699653        3.83456991364881        0.24697034603430
N            6.03257063782075        1.93931639166734        1.07969667213618
N           -4.30863914715947        3.36597041678438        1.95483520338327
N           -5.27692213399744        0.37428942575324        0.52183303683007
N            2.74549208983545       -3.80209566360046        0.36307350262787
N           -1.32759861632725       -4.10277853158804        0.10880866028990
C            6.17013248511036        3.13236808722607        0.32550924543764
C           -5.06267560473717        2.80150870443460        2.70948478435542
C            0.85087510289954       -5.40189080326811       -0.27373561890178
N            7.28685844397611        3.42786322034066       -0.15832364659152
N           -5.69193843187839        2.51622004433268        3.70109495450678
N            1.04375784322866       -6.31296593031242       -1.11703435550126
C            2.73475438978734        4.19128978598974        0.55403881526117
C           -2.57223508074950        3.93031093593138        0.48823299859450
C            2.83038410187808       -2.66616367444481        0.98303234263840
C           -1.78646248415915       -3.02370010315427        0.68494229701079
C            1.51878072956724        4.59341996430345        0.28283517886076
C           -1.54000275865908        4.61691872449774       -0.29855997147771
N            2.46666200139217        5.64581384273724        0.23434189942167
N           -2.32264452441897        5.29586936916666        0.50104552562398
H            7.32854203623288        4.27559462186639       -0.70810385760152
H           -6.64068414966369        2.18998717030744        3.72964791014021
H            0.20975343076573       -6.75955329419075       -1.48114262782130
H            2.72613758348684        5.95455098488681       -0.70628604442802
H           -2.58197256466032        6.15952450087815        0.93740692025889
H            0.47434644726098        4.41733817131871        0.13046237685698
C            2.70421160600059       -0.52009116349778        5.41840773605463
C            1.62330600923621       -0.00352190833973        6.00593523732927
N            0.42279018847153        0.07022638738221        5.34192220196211
C            0.29956119306572       -0.28425441126536        4.00960907705024
O           -0.78744132267852       -0.22808305839919        3.46540861509005
N            1.44483525556698       -0.69048139924974        3.37005514003000
C            2.64078152572425       -1.00327065659120        4.05219307763141
N            3.52353764288143       -1.66842532015607        3.43873875680436
C           -0.74183322561901        0.61383319689134        6.00723303007358
C           -1.14735869513950        2.01188325772153        5.45189135426467
C           -2.61780989196298        1.87758950354192        5.03840061766006
C           -3.03558826057602        0.52382837818416        5.64918323900090
O           -1.84244838042546       -0.22430023101512        5.87040819739556
C           -3.97787118829953       -0.26848637077509        4.72673783660881
O           -3.65295202141540       -0.13016308216224        3.37542102865260
O           -3.36722165056817        2.94972345456984        5.50624835337871
F           -0.94599763369176        2.95197933700120        6.40124702457534
F           -0.34791064859255        2.38512846389792        4.41859507530466
H            3.64248052221671       -0.60837194110450        5.93863308599551
H            1.62104019366088        0.36291182135187        7.02137579146535
H            4.36670375694773       -1.83309566281223        3.97598263059023
H            3.74133666248584       -2.12198919451851        1.12611285757206
H           -0.48002191120689        0.74155463338059        7.07058500384202
H           -2.63566865670549        1.80015518539311        3.94187201396841
H           -3.52103510314706        0.70851150975716        6.61888560740315
H           -3.95753157303325       -1.31768351435673        5.04317956747896
H           -4.99182500343025        0.12235452964646        4.83739059860282
H           -2.77373342572099       -0.50919574855999        3.23414968228075
H           -4.24572562587954        2.91900113556677        5.09270629499096
