48
 energy: -107.586723146003 gnorm: 0.002652428819 xtb: 6.7.1pre (5071a88)
P            0.21578296796817       -0.65207321420404       -0.26868923145179
B           -0.45353199475493        2.06694206166965       -0.16132290398067
C            1.95240015920242       -0.49990505954068        0.19080797340244
C           -1.77831563426140       -0.86516233040281        0.27950226505543
N            0.80853622826371        2.54384314344998       -0.02656312391061
N           -1.73769379500712        1.99199378583944       -0.18452373419123
N            2.50878947470496        0.76638680201609        0.21764092175935
N            2.72751657588571       -1.54618186136615        0.35574518187401
N           -2.76557867717482       -0.08786538358858        0.01774386651591
N           -1.65562510124236       -2.16656194776380       -0.09091536301896
C            1.95632774666542        2.06579944470039        0.10492568535273
C           -0.23187230735803       -2.33706165687326       -0.12846041526821
C           -2.80205413452134        1.21121886437220       -0.07176552240590
N            3.21631681878860        2.63770346743293        0.24228895317596
N            0.14148036479860       -3.59756242088545       -0.15361848650435
N           -4.05784007547909        1.79283205207793       -0.08671178272528
C            4.12538360007074        3.65884033242006       -0.01138339994470
C            3.77041000134499        1.32731884757462        0.30748165076437
C           -4.32904696418895        3.24204394104299       -0.23532339215889
C           -5.20648539640086        1.20961736526900        0.13461703695078
C            1.22591910927459       -4.44609950989879        0.02167659560078
C           -0.78933013999630       -4.64447767020865       -0.25987936105472
N            5.38015025541680        3.38446287943692        0.07016906355233
N            4.97807066973133        1.00289870294285        0.35777326797770
N           -5.42147979124431        3.73124336903230        0.35044723794720
N           -6.30310919046063        1.59884629036699        0.41641539126025
N            2.43045672980722       -3.97543697971663        0.29191336373098
N           -2.05549964765972       -4.44356203837794       -0.28238697616493
C            5.85972924742328        2.10717543311419        0.33576862221801
C           -6.41315899435911        3.05777149980638        0.86725536861713
C            0.36244528584556       -5.61977184325071       -0.10587394680851
N            7.08208548083873        1.86241212977875        0.53137268158702
N           -7.41162578555667        3.28408200863608        1.57298911961138
N            0.57353370196680       -6.85316895351667       -0.08909009114736
C            3.63124204936690        4.92932542170342       -0.33856410593349
C           -3.54422760464453        3.94516296528265       -1.05859580570280
C            2.58396535328426       -2.75096811049444        0.38160095650479
C           -2.54284726863827       -3.19706964515681       -0.06543000217188
C            2.75737980970636        5.89190760206995       -0.42471694114318
C           -2.32723714903558        4.45638521114190       -1.68995091214959
N            4.07318002279048        6.28446603731170       -0.81918634557781
N           -3.24271152731422        5.29829531887291       -1.27112974364415
H            7.66924657467565        2.68940519032888        0.48896123999930
H           -7.53874644115610        4.18779336503695        1.99507720934818
H           -0.24284920401328       -7.44500568218513       -0.20108676460067
H            4.57943727776391        6.84454771046788       -0.12665054994445
H           -3.54080291343422        6.22681196207564       -1.04827025037544
H            1.78188423232414        6.30040110216531       -0.33208450083414
