123
 energy: -235.427155513780 gnorm: 0.002021782081 xtb: 6.7.1pre (5071a88)
N           -0.22894069374020       -0.31784186543668        2.08821750700480
C           -0.01785103414417        1.07249637075041        1.92425789557355
C            0.92923517254778       -1.11008637345465        2.30274960782385
C           -1.52253118476580       -0.77055708542797        2.20940771157734
N            1.17682187486335        1.57210255711731        1.94187485490807
N           -1.05944383959533        1.87531320981278        1.77156786629007
N            2.11871629686642       -0.55988278375289        2.36115764732717
N            0.72986007336684       -2.42414458857788        2.41024524868886
N           -2.53432693427263        0.03491149106755        1.99037658175923
N           -1.69448421511830       -2.08098651817342        2.48721513331895
C            2.21096497978432        0.74409611879258        2.19777725242798
C           -0.55921846363955       -2.86854945292865        2.26475190171201
C           -2.25674046943495        1.32450800816391        1.79059491040673
N            3.45778488083197        1.29299728274453        2.25817068304570
N           -0.75060780194793       -4.16774015268590        2.15798172243820
N           -3.33823701940801        2.12978289741643        1.59513269100405
C            3.76624392059449        2.68088743230984        2.37298810322788
C            4.58322558486985        0.53825053675895        2.36424671624696
C           -3.19777760925747        3.53818765807881        1.35120641729238
C           -4.55689539460642        1.59741093840119        1.55101059932754
C            0.13468054836934       -5.12209814344924        2.77204136329763
C           -1.84994997904454       -4.78855411923460        2.83685374029636
N            4.96458608886109        3.10723695102377        2.12913486652033
N            5.74112855363849        0.94096380959919        2.26819636041186
N           -3.89004447739882        4.08557748945545        0.30308026193203
N           -5.62280798793587        1.19015496723467        1.47597395536918
N            1.17746756361672       -4.54942042811342        3.37697012791908
N           -2.80668697773540       -4.10562561473169        3.30277452363400
C            6.01742604235398        2.28071027450077        1.88343843556512
C           -4.78148148710260        3.74547340975781       -0.44426765465048
C           -1.01235189282290       -5.94733184543313        3.20700592158816
N            7.13940725215398        2.55539928086586        1.39335665135118
N           -5.77817246592368        3.72987573776511       -1.10933988947973
N           -1.28469526099150       -7.05665712458551        3.72854087154025
C            2.78639611370384        3.56449653831144        2.82130404945462
C           -2.39670395855273        4.26437307702256        2.10401149487178
C            1.47286235555210       -3.32349814961454        3.32261495626592
C           -2.84456627888559       -2.72666756011430        3.15750175365732
C            1.59448942212496        4.07382342330381        2.99353006508549
C           -1.46176682154806        4.71455921414054        3.14104925651553
N            2.65091250417599        5.03140971209972        3.12071329791121
N           -1.89940947479510        5.55854305506939        2.24001466806801
H            7.27411668491562        3.51460265270928        1.10316614689131
H           -5.95308243435105        3.37727904344257       -2.02710179618027
H           -0.48516734785545       -7.63260165572389        3.96997293567006
H            2.76927767309980        5.64375277826864        2.30746201577605
H           -1.90044558361158        6.47011173608822        1.82654294874299
H            0.53012634914050        4.02747358382704        3.05299462666947
C           -1.95508853699145       -0.97616416519500        7.95865232220140
C           -2.63555857798728       -1.72964694980136        7.31542988579413
C           -3.52508188087465       -2.71201268216371        6.81348803869282
C           -3.99930675145249       -3.62089542238682        7.76551380848777
C           -4.91116603969223       -4.60982924810800        7.46047769507883
C           -5.41925913603767       -4.65600506979406        6.18114429564441
C           -4.99027938288270       -3.76307026109284        5.19674655083819
C           -5.67723816517505       -3.75771758349109        3.93160673408616
C           -5.36997985225600       -2.88970523565533        2.95682716666912
C           -4.18864058587570       -2.02814248901611        3.06659073613644
C           -3.45340215243939       -1.98320631143739        4.38912195088288
C           -3.98256213942056       -2.82139775505292        5.49036233509657
C           -2.65748849844745       -0.77570925406574        4.74832483024258
N           -3.18910506832867        0.44739930591897        4.67442940761847
C           -2.43362041304190        1.49295456476561        4.92641963485353
C           -1.07102523917891        1.43150075050556        5.24544861469434
C           -0.46121487290686        0.14727565723541        5.19514725557736
C           -1.31695053672688       -0.95230385043568        5.01973092726984
F           -0.78096549000000       -2.18916630930693        5.02008903635283
N            0.85911216529471       -0.05603868384917        5.22278675576789
C            1.61138557294905        1.02823599624662        5.22360848920474
N            1.16883197948355        2.27098152684982        5.39422802704057
C           -0.13535668105598        2.50214592849821        5.52806400901708
N           -0.49660608635552        3.72349507823362        5.92681301613790
C           -1.75357236488443        4.04880751110375        6.55638423635166
C           -1.49056751609241        4.59036777604519        7.97539087516229
C           -0.60847034096445        3.59694014151473        8.76517756842311
C            0.82285409538791        4.04341381985846        8.42310480979097
C            0.60448334947852        5.25257877219412        7.48779604488890
C            0.48778928836523        4.78272595442748        6.03370540991475
N           -0.69962917811493        5.80121050271166        7.83841754287528
O            2.92121552338298        0.91758113858952        5.08684383011353
C            3.48359584233659       -0.39400655355769        5.06113016567463
C            4.12778799145772       -0.79140672821646        6.40030646662966
C            4.56373275312042       -2.26983263598702        6.32521291823260
C            5.94474505528010       -2.27512713004235        6.97666708356505
C            6.48614284022187       -0.90471570170317        6.55827705060260
N            5.34919349113213       -0.00057428993282        6.62169737843612
C            5.21545938199318        0.77673186481692        7.83858532913488
C            3.70687722542535        0.89464131952105        8.03956173320355
C            3.20518857416731       -0.47106357061687        7.58390248395638
F            3.38599509880925        1.15141914869845        9.35565954027908
O           -6.05553507123006       -2.73572295949787        1.80210878841278
F           -3.54912366838135       -3.52686668011970        9.03342887351234
H           -1.31370413473854       -0.29387618074166        8.43184167383845
H           -5.22536639497377       -5.30092820297769        8.22603206071144
H           -6.16710109290236       -5.39132782674682        5.92847855371763
H           -6.51785246341050       -4.42867488031187        3.82592887718297
H           -4.22066606082234       -1.13275713510538        2.46304543614009
H           -2.93323934283748        2.44233979970763        4.79298500829957
H           -2.38396366120119        3.16626822886452        6.63803492576379
H           -2.26574864058886        4.81850743218345        5.97003505575236
H           -2.44859801783619        4.79489079321867        8.45731251605458
H           -0.80653365209683        3.68310344648396        9.83342807939474
H           -0.80558089543801        2.56852590348344        8.46770291163552
H            1.36921419005455        4.33934848588950        9.31749531989946
H            1.39098128558508        3.26437125670689        7.92109029654484
H            1.38541882709860        6.00939391372318        7.56527149310912
H            1.44009220461185        4.41391176587092        5.65971134485315
H            0.14392431697661        5.62175433528283        5.42290520938274
H           -0.65530151919109        6.29939652102904        8.72207131918377
H            2.71707472737413       -1.12479979306173        4.79178367856025
H            4.25839095977352       -0.36687386284652        4.28387522130360
H            3.84895169277350       -2.92269513008659        6.82000006707577
H            4.64105978804247       -2.57657058888964        5.28282875653723
H            5.85862264063210       -2.33093077742348        8.06319039226293
H            6.56874124266851       -3.09687385480291        6.63461214614019
H            6.83541289710491       -0.94096727691729        5.52203506149568
H            7.29956150326876       -0.54603620924587        7.18843090238059
H            5.64663856963261        0.27403859226404        8.71796683524164
H            5.70105106672794        1.74816291579668        7.71877846313576
H            3.28404830784563        1.71364246284255        7.44942288488986
H            2.15293601701120       -0.48382527175530        7.30992796388678
H            3.36179712435237       -1.18463100218544        8.39493433438334
H           -6.83919733395936       -3.30048187189988        1.80355255680360
