123
 energy: -234.036416126763 gnorm: 0.003384179138 xtb: 6.7.1pre (5071a88)
P            0.89914622505129       -1.03933121379220        3.13543094753235
B            0.73174133134615        0.81058124950191        2.62418334905986
C            1.69402788489147       -1.36576104906600        1.47965861643962
C           -0.76235641247246       -1.36092465449878        2.41856681053721
N            1.67619198294854        1.41520111550151        1.83618810134513
N           -0.58333558729829        1.45006864237345        2.88565154575814
N            2.46389719840863       -0.55453081070025        0.81928087887303
N            1.41178654513948       -2.60356237366828        1.00919124951261
N           -1.78504235280066       -0.54546991887396        2.36975392806880
N           -0.86359360259380       -2.60703692197680        1.88213957768038
C            2.57835226530753        0.73086687765920        1.18913623304420
C            0.33454835666554       -3.26813742433032        1.62668079515590
C           -1.77157399367741        0.70479296124116        2.72379578009001
N            3.66855288349460        1.37949724733372        0.65228244049359
N            0.25948399541256       -4.59090574001352        1.40265308628396
N           -2.98417921815330        1.37103645347471        2.78658455422206
C            4.10665658911944        2.70410338862569        1.00028304261967
C            4.43763611640870        0.88575042990319       -0.32749395351684
C           -3.12987154165011        2.87047417506545        2.68527586255119
C           -4.19116628394789        0.86330058957301        2.94750919499413
C            0.81425111842675       -5.12115569980225        0.15369804203063
C           -0.97043532574390       -5.14374365792478        0.87197988777797
N            4.80752568960132        3.40067567449933        0.15951313905066
N            5.23396135419608        1.47990846496485       -1.03633437796733
N           -4.23614515907207        3.36469966976857        2.29899781652899
N           -5.28425461049032        1.36495852848916        2.72743441464268
N            1.55393098590583       -4.30806341538320       -0.55254218920278
N           -2.01474117999064       -4.34238724370380        0.85004451974112
C            5.28979637010467        2.91695120988719       -1.00945801210930
C           -5.36561355043906        2.62101519905713        2.06187836435906
C           -0.31299718063983       -6.03060122803504       -0.07954128412215
N            5.75898482037393        3.51194734700724       -2.00408161151265
N           -6.39590367300350        2.91945781504458        1.42514393847634
N           -0.67124408558286       -7.02046546497025       -0.75937261325564
C            3.85054774810205        3.15458538784663        2.28696044622960
C           -1.98457130482689        3.42108887311003        3.23410640872849
C            2.02381841016564       -3.20764452589876       -0.07936922666697
C           -2.01196526711904       -3.17372802641136        1.36597108422735
C            3.26317852376106        3.23774977465728        3.45836777410685
C           -0.81715660395389        2.70329636006634        3.20040231494284
N            4.02685349403759        4.39047460559277        3.11449873954411
N           -0.66838692310730        4.07842083336490        3.01336928880887
H            5.76245961578338        4.52141489717679       -1.98296214545698
H           -6.42192228510828        3.83190303013226        0.99130287531520
H            0.02087396271077       -7.41967935635419       -1.38153223593341
H            3.48250121914299        5.20327164366669        2.81827174483279
H           -0.41709286649169        4.38899824631135        2.07195063710983
H            2.71049110566738        2.84416044677486        4.27568641473827
C           -3.00151705178369       -0.44451106590121        8.60827186082127
C           -3.66646271475803       -1.27442826704691        8.04824400392230
C           -4.50043773870685       -2.31843693627074        7.58336950384260
C           -5.12335630733796       -3.11504053297453        8.52560917069714
C           -5.96716312618161       -4.17160632247017        8.18039471959510
C           -6.19446382550574       -4.43651841263975        6.85905071617701
C           -5.59041937341056       -3.66038885535188        5.84682661189591
C           -5.82941176768938       -3.93947202503096        4.48727580082283
C           -5.24530262116269       -3.18719077335269        3.49827394775490
C           -4.38712947324604       -2.12685036645770        3.85074184154231
C           -4.13915330102132       -1.83189734686326        5.16404263250512
C           -4.73137729110594       -2.58687762464936        6.20638406610473
C           -3.20765709591081       -0.72053660352186        5.45634753749069
N           -3.70717603791174        0.51776327633275        5.55061477697136
C           -2.90927369123691        1.52773284459796        5.78693696617679
C           -1.51739525615910        1.41412675926687        5.92656172706759
C           -0.95678276510714        0.13089880744023        5.68607672206115
C           -1.84658709290038       -0.93836278049910        5.48832190965734
F           -1.33863007041385       -2.16208785927562        5.25127060858501
N            0.36749923225147       -0.07670909757254        5.55294552554607
C            1.12787283595274        0.99749338428344        5.56568051396308
N            0.72953669963346        2.24512764769401        5.79124783705912
C           -0.55463738521426        2.48237254476313        6.08041083772757
N           -0.86998250365671        3.72011788054679        6.46458909395332
C           -1.99732730975533        4.06213986622303        7.30146134966430
C           -1.48458109867353        4.68196632725010        8.61685069137400
C           -0.44572990574306        3.74852216573012        9.27825766844678
C            0.88304252486023        4.19090883676737        8.64420479496848
C            0.46562661108132        5.34869438630635        7.71112931756055
C            0.08938461853232        4.79878228083902        6.33029636187981
N           -0.76280311695084        5.89410491127400        8.27045163646370
O            2.43295910761016        0.89235845926304        5.31677302494692
C            3.05475109129014       -0.37758242104339        5.47966152945681
C            3.94009873833804       -0.40810285483891        6.74258012807148
C            4.42026208727966       -1.84954505573109        7.00831390041988
C            5.87782192888513       -1.67098467658218        7.42455929569085
C            6.29818724019571       -0.48786757273771        6.54785895103906
N            5.14805225149330        0.40286641533009        6.51567954390046
C            5.18124286896388        1.50620852830184        7.45972458717472
C            3.73371819139328        1.66700746837986        7.91670188410486
C            3.21968403690647        0.23159624629944        7.93717837921373
F            3.66034026910181        2.25650152191685        9.16009112500813
O           -5.44377621772350       -3.40167304392005        2.18246000125677
F           -4.91665329575427       -2.87563140917575        9.83823540077217
H           -2.40472499894917        0.30240366271943        9.03930802699427
H           -6.41986697508632       -4.75372653792743        8.96752032202672
H           -6.84441787277218       -5.24930777574878        6.57253732630087
H           -6.48566407979356       -4.76134915055295        4.23423592804246
H           -3.92757698501647       -1.56016018480307        3.05408551209996
H           -3.39780466181305        2.49146144295938        5.78382151909765
H           -2.58078116404726        3.17563360432996        7.54085953908491
H           -2.62708162799177        4.79502636375139        6.78811650459657
H           -2.34055248231523        4.89981927588297        9.25780862363305
H           -0.43844843164454        3.89618296253013       10.35764397084926
H           -0.66662410890872        2.70016991979651        9.08313725309302
H            1.59126066218886        4.53187517996682        9.39711012482824
H            1.35120694239830        3.39026884733374        8.07888821803671
H            1.22922255128342        6.11988880340382        7.60409851349722
H            0.96290531890132        4.42245065218049        5.80360765714057
H           -0.38376434211862        5.59449864367671        5.74792253197366
H           -0.57024796353292        6.44702899862365        9.09947061562631
H            2.28954785225335       -1.15578710420411        5.54363284537590
H            3.68269183293703       -0.53259280539235        4.59816569918004
H            3.81373200573693       -2.34207319651697        7.76481182156007
H            4.36630652131027       -2.43237052356357        6.08883469052929
H            5.94486343533861       -1.40001722920032        8.47963671832844
H            6.47966211258226       -2.55948897790438        7.25417733886583
H            6.49547098081334       -0.83223227634247        5.52741699256935
H            7.18109326743214        0.03474567010593        6.91386513401896
H            5.80135668340702        1.29325542308585        8.34273726422525
H            5.56750663881197        2.40354167203660        6.96973933794989
H            3.16089791684816        2.30160392028837        7.23414170439559
H            2.13613761360879        0.16075237346823        7.86330899969449
H            3.53480831931951       -0.23596068420353        8.87139051298274
H           -6.01365164481365       -4.16804903748559        2.04246005653815
