123
 energy: -235.290743392420 gnorm: 0.003964405682 xtb: 6.7.1pre (5071a88)
N           -0.00236941076695        0.04999875710723        0.38145959692993
C            0.03412463430004        1.45252588061994        0.12321876218228
C            1.21492500437633       -0.63027367068685        0.37475363290900
C           -1.21803819549035       -0.59209520565354        0.28373469038856
N            1.18138303942287        2.05820328258980        0.00160352029473
N           -1.10203019877822        2.10746179730630       -0.00879734050248
N            2.34017266891180       -0.00184776142679        0.22626033527980
N            1.15716736997115       -1.97128424767648        0.52204858891698
N           -2.31294745598543        0.06371027809100        0.03418473583799
N           -1.22360884203228       -1.93376921595561        0.44338766389322
C            2.29835542266522        1.32605188349996        0.07817156422665
C           -0.04947272282745       -2.55308056250981        0.84117673668451
C           -2.22029285987631        1.40020722180826       -0.04614765555234
N            3.51137759580467        1.93160038753509       -0.03036771585326
N           -0.08869605059005       -3.88509208003447        1.21434749850164
N           -3.41717513572818        2.02552711234890       -0.21352023498664
C            3.79288313672045        3.33320724351799        0.08688406009677
C            4.66016079764849        1.21311729851887       -0.14833405186786
C           -3.63562742499004        3.43963929201809       -0.24741978735801
C           -4.48766867098547        1.24267649116054       -0.38594985567292
C            0.91844546442671       -4.56284895858689        0.30472288305392
C           -1.03695048020255       -4.51542477151340        0.22515987033151
N            4.97764255824056        3.80127781551378       -0.14276160569202
N            5.79530374198504        1.65203165304322       -0.27005664475544
N           -4.93287347564991        3.88326471529025       -0.21940132175952
N           -5.43916370751730        0.63459447222540       -0.56711502729319
N            2.01739649857317       -3.97412952897347        0.02306248405203
N           -2.09338329938482       -3.90377159294279       -0.15193584131218
C            6.06910830151201        3.03990384744821       -0.42823040900454
C           -6.03644230793784        3.41765880697305       -0.02840606077033
C           -0.04647982093505       -5.44679539241851       -0.30620525557640
N            7.21280893948994        3.39334260082480       -0.79200738420222
N           -7.16597930680833        3.28232539263669        0.34440690653212
N            0.03343859996273       -6.53174985950224       -0.94457636120260
C            2.79299581665108        4.19251449305556        0.52809596274431
C           -2.66028112764712        4.32743124953752       -0.33152426483966
C            2.32854500849749       -2.77370125757265        0.39541544389290
C           -2.39624991559018       -2.68771337416199        0.20109643023816
C            1.60799638291370        4.75132973635869        0.57984305805315
C           -1.41257990354066        5.08887898953709       -0.39546501519868
N            2.66247097071133        5.65028119671216        0.88402653907887
N           -2.55200995215087        5.72519802572553       -0.36160685765271
H            7.35967853404445        4.37845065961787       -0.96028411572803
H           -7.95510206593154        2.87769945186191       -0.11521861581279
H           -0.85208222513305       -6.93352144507138       -1.23141759872867
H            2.89742165671142        6.31811362701812        0.14598461171947
H           -3.07809934399081        6.57666106529502       -0.35653961556670
H            0.54995381371242        4.73066513977370        0.43996028319533
C           -3.15751482472352       -0.42048874745997       10.91794210209145
C           -3.65594973540314       -1.38154675511956       10.39576002243129
C           -4.33025655448326       -2.55022713429621        9.97106635644301
C           -4.80276287727213       -3.41523201987985       10.94011379592843
C           -5.55810424640947       -4.54868114052300       10.63672260294478
C           -5.87676380369187       -4.80418285171171        9.33252190687973
C           -5.42606638010477       -3.95990155515810        8.29571437988559
C           -5.79202474243652       -4.21042716180585        6.95873458052461
C           -5.37582925945594       -3.38026562557804        5.94826480794106
C           -4.52573691891062       -2.29950321830384        6.24597535991770
C           -4.12489431087290       -2.04819476927809        7.53243658181438
C           -4.60438761931764       -2.84185075589657        8.60587791148677
C           -3.12426788748807       -0.97989483767314        7.73543574327513
N           -3.46573339882639        0.26887423324909        7.39015352101272
C           -2.60485703543442        1.24026423464073        7.55380557457040
C           -1.31031893868412        1.06440659332524        8.06192110782875
C           -0.86811641642273       -0.27376999578965        8.26811017673514
C           -1.83606976100229       -1.28676645620033        8.13007977222805
F           -1.48226711652609       -2.56633847623703        8.34209009206256
N            0.41450482328947       -0.58465777876106        8.53052028597789
C            1.26212852490771        0.41699797197947        8.52111600263888
N            0.96149925401803        1.71489733356739        8.42089760691168
C           -0.30578449079206        2.07549023382769        8.28244127466647
N           -0.57534150819967        3.39526897918310        8.30786851359002
C           -1.79586310231674        3.95638754229327        8.84160804325725
C           -1.48332642772717        4.70083972483618       10.15475265901448
C           -0.69773740228166        3.77931204635630       11.11711845142992
C            0.77232246076670        4.05316033728933       10.75639929508118
C            0.66853159845949        5.07548780728480        9.60436348007088
C            0.51613981305421        4.35089311554749        8.26237648056644
N           -0.58209768690281        5.79252869700247        9.82081666595758
O            2.55911461387396        0.19338227170751        8.67771278555599
C            2.97210941364435       -1.15714197628754        8.81776756412503
C            4.44880584801897       -1.17493439738885        9.23759771535328
C            4.92676615238163       -2.62259266361158        9.47010629061895
C            6.32352605740455       -2.64370641787796        8.85320362094415
C            6.14325585129717       -1.69991530460912        7.66163942221080
N            5.27591542067692       -0.63786534050372        8.14394207087078
C            5.93192390883863        0.58398267939909        8.56839399799963
C            5.13808496635060        1.05915907704204        9.78423053776156
C            4.68876309462139       -0.24454606578661       10.43542318992029
F            5.93005183443041        1.80473857460807       10.63180369949067
O           -5.72259622979995       -3.55493120961681        4.65200406011191
F           -4.55095901923561       -3.15668304670618       12.24132639019472
H           -2.70469629297696        0.44281498880639       11.30402176830817
H           -5.89051883249750       -5.18445717645877       11.44217340698170
H           -6.48663751349157       -5.65835918655720        9.07929712605942
H           -6.41595702643144       -5.06758022198611        6.74266843907667
H           -4.17463311129580       -1.68497740847537        5.43263223510432
H           -2.94508170933416        2.20841755852467        7.21145112949946
H           -2.52183526206953        3.17054115450825        9.04333536095633
H           -2.21372842831775        4.67136861740623        8.12485553020009
H           -2.41603458781964        5.07593259464571       10.58097157437279
H           -0.91074285547283        4.04311014285552       12.15297766720205
H           -0.96625931385772        2.73416626542929       10.97100427348975
H            1.31258493042991        4.48447256430922       11.59923102066790
H            1.29499547593806        3.15623459014496       10.43172162083197
H            1.51454426841330        5.76288713219293        9.55568685435355
H            1.42751284832238        3.81483678641907        8.00431313648208
H            0.28013372406209        5.09231806399999        7.49114429776047
H           -0.49512602120973        6.43498851278104       10.60259648875214
H            2.34864375877788       -1.65910549866836        9.56536428443195
H            2.84684034666110       -1.67293107781630        7.86012077349850
H            4.91926152411845       -2.88279500080169       10.52631297453097
H            4.27595744494647       -3.31684027607498        8.93816295454825
H            7.05674834441595       -2.23325080584183        9.54965401127764
H            6.64207977766471       -3.63997918461910        8.55760220929606
H            5.63205968941171       -2.22128776248736        6.84632417991062
H            7.07833073093122       -1.29258442683326        7.27917639565593
H            6.97317231495779        0.41314086808754        8.87765449148690
H            5.92729240913115        1.31329405190164        7.75457956053708
H            4.29244073770166        1.69198414821071        9.50370878176603
H            3.80247060671749       -0.12259644453242       11.05322620018253
H            5.50474922269831       -0.62026352850638       11.05519405113818
H           -6.28453119862011       -4.33377173152626        4.55612547917217
