167

N         -0.001684       0.050801       0.381024
C          0.034896       1.453417       0.123292
C          1.215067      -0.630252       0.372219
C         -1.217881      -0.591368       0.285822
N          1.182871       2.058367       0.001387
N         -1.100593       2.107546      -0.008283
N          2.340434      -0.001887       0.222620
N          1.156896      -1.970418       0.520840
N         -2.312553       0.064135       0.036749
N         -1.223535      -1.932531       0.447001
C          2.298845       1.325733       0.076689
C         -0.049291      -2.552152       0.842150
C         -2.219658       1.401128      -0.045792
N          3.512070       1.931030      -0.033711
N         -0.086979      -3.885479       1.214181
N         -3.415391       2.026784      -0.212722
C          3.794322       3.332739       0.085636
C          4.659666       1.212019      -0.158208
C         -3.634209       3.440008      -0.247516
C         -4.487547       1.244035      -0.382275
C          0.918002      -4.563312       0.303804
C         -1.038705      -4.514519       0.228547
N          4.978553       3.800635      -0.143455
N          5.793982       1.650098      -0.282734
N         -4.932397       3.880767      -0.220187
N         -5.438450       0.635413      -0.560903
N          2.016604      -3.973573       0.024421
N         -2.097100      -3.903097      -0.141815
C          6.069830       3.039510      -0.433083
C         -6.037884       3.412646      -0.038457
C         -0.048289      -5.446084      -0.306697
N          7.213870       3.394980      -0.792911
N         -7.163017       3.258897       0.343150
N          0.029376      -6.528461      -0.947707
C          2.795027       4.192750       0.525757
C         -2.659241       4.328359      -0.330047
C          2.328280      -2.773777       0.395430
C         -2.399427      -2.688072       0.213499
C          1.609694       4.752176       0.577025
C         -1.411127       5.090545      -0.387433
N          2.661690       5.648372       0.887498
N         -2.550791       5.725679      -0.357560
H          7.364933       4.381364      -0.951383
H         -7.960950       2.886584      -0.130236
H         -0.856227      -6.931236      -1.233181
H          2.895051       6.321774       0.153342
H         -3.077766       6.576958      -0.352709
H          0.550733       4.730970       0.436920
N         11.492728       0.050801       0.381024
C         11.529308       1.453417       0.123292
C         12.709479      -0.630252       0.372219
C         10.276531      -0.591368       0.285822
N         12.677282       2.058367       0.001387
N         10.393819       2.107546      -0.008283
N         13.834845      -0.001887       0.222620
N         12.651307      -1.970418       0.520840
N          9.181858       0.064135       0.036749
N         10.270877      -1.932531       0.447001
C         13.793257       1.325733       0.076689
C         11.445121      -2.552152       0.842150
C          9.274754       1.401128      -0.045792
N         15.006481       1.931030      -0.033711
N         11.407432      -3.885479       1.214181
N          8.079021       2.026784      -0.212722
C         15.288734       3.332739       0.085636
C         16.154078       1.212019      -0.158208
C          7.006865       1.244035      -0.382275
C         12.412414      -4.563312       0.303804
C         10.455706      -4.514519       0.228547
N         16.472964       3.800635      -0.143455
N         17.288393       1.650098      -0.282734
N          6.562015       3.880767      -0.220187
N          6.055962       0.635413      -0.560903
N         13.511016      -3.973573       0.024421
N          9.397312      -3.903097      -0.141815
C         17.564242       3.039510      -0.433083
C         11.446122      -5.446084      -0.306697
N         18.708282       3.394980      -0.792911
N         11.523788      -6.528461      -0.947707
C         14.289439       4.192750       0.525757
C          8.835171       4.328359      -0.330047
C         13.822692      -2.773777       0.395430
C          9.094985      -2.688072       0.213499
C         13.104105       4.752176       0.577025
C         10.083285       5.090545      -0.387433
N         14.156102       5.648372       0.887498
N          8.943621       5.725679      -0.357560
H         18.859344       4.381364      -0.951383
H         10.638185      -6.931236      -1.233181
H         14.389463       6.321774       0.153342
H          8.416646       6.576958      -0.352709
H         12.045145       4.730970       0.436920
C          2.600751       0.445157      10.921281
C          2.107383      -0.516888      10.397532
C          1.434812      -1.685816       9.971893
C          0.961607      -2.551635      10.939451
C          0.205906      -3.684246      10.634953
C         -0.112590      -3.938232       9.330836
C          0.338895      -3.092903       8.295588
C         -0.027045      -3.341845       6.958545
C          0.391096      -2.511726       5.950031
C          1.242386      -1.432360       6.247369
C          1.642060      -1.181431       7.534135
C          1.161095      -1.975835       8.606317
C          2.642253      -0.112884       7.738635
N          2.298247       1.135609       7.398415
C          3.159267       2.107214       7.559615
C          4.454947       1.932143       8.064466
C          4.897802       0.594366       8.267900
C          3.930586      -0.419214       8.128697
F          4.285258      -1.700396       8.337873
N          6.179549       0.282221       8.531019
C          7.027361       1.284111       8.521571
N          6.727046       2.581576       8.423295
C          5.460440       2.943440       8.283187
N          5.193809       4.263096       8.309244
C          3.974597       4.830603       8.837648
C          4.287677       5.573630      10.151069
C          5.072087       4.651872      11.113833
C          6.542612       4.924378      10.755330
C          6.439703       5.943885       9.601256
C          6.286483       5.216136       8.262063
N          5.190889       6.663385       9.817607
O          8.324100       1.060672       8.679667
C          8.737219      -0.288969       8.820270
C         10.215576      -0.304358       9.234380
C         10.695755      -1.751456       9.468637
C         12.093267      -1.769205       8.854527
C         11.909791      -0.824979       7.663234
N         11.034868       0.235933       8.135495
C         11.695615       1.454179       8.567704
C         10.903171       1.927166       9.784714
C         10.455216       0.623042      10.434567
F         11.695912       2.672345      10.633267
O          0.043994      -2.691331       4.651278
F          1.213127      -2.295679      12.241140
H          3.057850       1.306840      11.306658
H         -0.127306      -4.320351      11.439764
H         -0.723045      -4.791615       9.076761
H         -0.652720      -4.197683       6.741582
H          1.594380      -0.815837       5.436272
H          2.818614       3.073642       7.214521
H          3.243030       4.050224       9.036280
H          3.563669       5.548554       8.120861
H          3.355571       5.950343      10.576382
H          4.858562       4.915789      12.149620
H          4.802866       3.606802      10.966631
H          7.080189       5.357409      11.598444
H          7.066378       4.027211      10.433333
H          7.286447       6.629405       9.550658
H          7.196552       4.677618       8.005186
H          6.051308       5.955440       7.490422
H          5.279731       7.304697      10.600052
H          8.115391      -0.790122       9.570004
H          8.609589      -0.805264       7.863252
H         10.687475      -2.012280      10.524781
H         10.046977      -2.446962       8.935437
H         12.823440      -1.355221       9.552061
H         12.416624      -2.765087       8.560998
H         11.403855      -1.351101       6.846918
H         12.845416      -0.415462       7.283032
H         12.737696       1.283693       8.877276
H         11.689730       2.188150       7.758005
H         10.056990       2.559521       9.505794
H          9.569174       0.743595      11.053047
H         11.272076       0.247361      11.053417
H         -0.527359      -3.464081       4.564181