167
 energy: -336.619339797574 gnorm: 0.002457534378 xtb: 6.7.1pre (5071a88)
N           -0.03964104377551       -0.24310831466405        1.06120120474214
C           -0.15551075868273        1.14242080831385        0.79685842410097
C            1.24480282159828       -0.76919993720134        1.13658846057325
C           -1.17717237474911       -1.00939276048486        0.97756223120418
N            0.91467012373904        1.86937635043927        0.64450446530086
N           -1.35411607114788        1.67643660607831        0.68447064406759
N            2.29406551800290       -0.02938590257648        0.95094730520686
N            1.33723803887288       -2.09806853227480        1.36452222646685
N           -2.34784339477608       -0.47634944821842        0.78942017213650
N           -1.02077652047458       -2.34976755622349        1.09878212526929
C            2.10916433578140        1.27587293900894        0.72775609770498
C            0.18266705642232       -2.80848332492887        1.60316122220877
C           -2.39722192066925        0.86201074138110        0.72587526938185
N            3.23648338129471        2.00121737987203        0.51615823903868
N            0.25526751442091       -4.11213257306190        2.03831219138686
N           -3.64097751561857        1.40148438964812        0.68176347755242
C            3.24451929236547        3.28176852763279       -0.07992384181674
C            4.42873408491366        1.45859114146643        1.00640432273722
C           -3.88296748688084        2.82083776975140        0.65735283774681
C           -4.71429872339701        0.61313194249309        0.75468431677753
C            1.41496281017161       -4.72237739036413        1.28035331821441
C           -0.52254105609794       -4.89963314311448        1.00251718306865
N            4.32120252502612        3.78388737260879       -0.59526271853240
N            5.48310097624120        1.97218259978862        0.43109710059188
N           -4.91331904628875        3.30495714443891        1.41925314524777
N           -5.69098785031640        0.02225880906808        0.82062699094514
N            2.45772733578744       -4.01421863980943        1.06308574388300
N           -1.59401648432848       -4.42566615951824        0.49443638589868
C            5.44762417356458        2.99109338280466       -0.60174890935528
C           -5.74676675876829        2.82683742104522        2.16044459345149
C            0.61630051087903       -5.73612270343228        0.62992096457765
N            6.16096068104943        2.64400155342256       -1.78799117167685
N           -6.46791778571337        2.62269414583114        3.09548438938188
N            0.87734508877456       -6.83334053061137        0.06737558198569
C            2.08861634142893        4.06890870179004       -0.14572255263110
C           -3.14575459995270        3.61948994439431       -0.08864361703725
C            2.58862510315210       -2.77136386302436        1.38867260149721
C           -2.07092083916824       -3.24385400619399        0.77609959137439
C            0.85120224393955        4.41075803124648       -0.37665294114932
C           -2.13845012435251        4.16957667829132       -1.00286177860186
N            1.75660110509279        5.48524484224103       -0.57306753354342
N           -2.97746319692519        4.96719982237887       -0.39184641284760
H            5.92280647428255        3.25773261092393       -2.56637809329715
H           -7.41814971944581        2.31450000061128        3.12315527428591
H            0.07734731262346       -7.34721070933595       -0.28377285751207
H            1.95306626617500        5.71058718295496       -1.55235761964656
H           -3.31103347980335        5.88892968485897       -0.18776501501368
H           -0.19028207339561        4.17951197244062       -0.47731887254659
N           11.81529879276960        0.19979205958381        0.72436153489595
C           12.05790591259225        1.55660928106893        0.83626052361530
C           12.97423856783964       -0.60981519692094        0.70570394310987
C           10.54389568013980       -0.21096341517187        0.37892078894889
N           13.24549484548990        2.05093391595020        0.91952159430706
N           10.99473470290519        2.40782219323148        0.83475600634354
N           14.17547324346001       -0.11198925045248        0.76148102602868
N           12.72921764479689       -1.93463297613669        0.60607953523461
N            9.56534969566283        0.61852408344405        0.24016341413870
N           10.39912890088586       -1.56006351260764        0.17358828202507
C           14.29137403995087        1.20858309718906        0.86745001591282
C           11.43498782259373       -2.38148385450876        0.63090438403405
C            9.70269335059688        1.93013752430483        0.47649282853711
N           15.50479568884013        1.81279302760434        0.85938055759947
N           11.17153931800044       -3.72944277805379        0.74566636730853
N            8.80726593811810        2.82832004198866        0.32581722539648
C           15.67267597536683        3.27585496382051        0.56945351362182
C           16.68882895181796        1.24754730607702        0.76055323162597
C            7.50484758574577        2.59121958622463        0.14568387059865
C           12.24602227038697       -4.44512328286620       -0.03783529581293
C           10.37413869145143       -4.08518588737765       -0.49014406552068
N           16.69356027808843        3.60091145532030       -0.21536828651081
N           17.74019342207615        1.60868252441789        0.31476453377395
N            6.80133542155189        3.46042696335624       -0.74934607395292
N            6.76711453371337        1.77293830221266        0.81733397485244
N           13.43389287936908       -3.96768465719113       -0.03795115103628
N            9.51429243412640       -3.27584461704941       -0.97322609896484
C           17.72038548906654        2.87026089371432       -0.55202470739204
C           11.32920343739009       -5.09526135357462       -0.94587946468429
N           18.67264808501709        2.93071357783100       -1.34886478831118
N           11.39834820072973       -6.10530703622231       -1.69458352239185
C           14.88193351990392        4.20149011734604        1.13405424869482
C           11.34716327610317        3.68325706866563        1.12275157739723
C           13.79525171172001       -2.88990364122889        0.56964723096115
C            9.30691672754402       -2.08151205142562       -0.48628855221364
C           13.70440280274982        4.77194120618746        1.79976807829743
C           12.34327688691749        4.47481911351614        1.38973735811455
N           14.64221609185328        5.55810407542546        0.99837648709047
N           10.93943294215217        5.05075822479747        1.36539393494848
H           18.72746137816098        3.66830215508666       -2.02956682729683
H           10.56190401651301       -6.31612603747305       -2.22682473904440
H           14.36626816260475        5.94510834692267        0.10427355275846
H           10.72451133406264        5.56993153991981        0.50563232997340
H           13.77876552007761        4.99785473168596        2.86411551491589
C            2.70781050417917        0.48676946811723       10.08195526930621
C            2.19470887789481       -0.37391952954394        9.41901571338892
C            1.49410428223123       -1.45336039398107        8.83157150268609
C            1.12552218821341       -2.49543032826533        9.66227791399436
C            0.32320551916954       -3.55581265814594        9.23875404948448
C           -0.17181235031746       -3.54059744128107        7.96589320480119
C            0.16234605108379       -2.50120457154634        7.07233868116961
C           -0.42299248086664       -2.44925940697813        5.79344551766144
C           -0.12525268303217       -1.42809542183732        4.93066624433376
C            0.85088496672435       -0.48071936804866        5.27324194583326
C            1.45651210302380       -0.51558597519090        6.50614883246367
C            1.06673667519969       -1.48029295649211        7.47359093264020
C            2.54045165277756        0.44760070153181        6.76802556675703
N            2.29092581747421        1.73885270340452        6.50359032707695
C            3.18995125333288        2.64258292391157        6.79373120811409
C            4.42420985962598        2.35170939420299        7.39216611155663
C            4.79371772001569        0.98009020953811        7.47921780780529
C            3.79557799502209        0.03440646439597        7.17199304126337
F            4.08470886117864       -1.27400689358319        7.26411873570007
N            6.02977228588474        0.58236996974660        7.82577179652070
C            6.90858874568297        1.53817656904856        8.02049299681013
N            6.66024048263798        2.84853832195603        8.07349223719813
C            5.42354377631436        3.27800921709214        7.86271147581346
N            5.17473860038107        4.58050626950284        8.09493612117849
C            3.90025179374725        5.08615316424952        8.55289956346014
C            4.03271744448168        5.54924482630889       10.01693263297768
C            4.65663488009058        4.42358323133544       10.87498284780297
C            6.16728599941803        4.69657667624760       10.78196087921531
C            6.24643644736324        5.92557931781680        9.85068320775234
C            6.27462455780176        5.48157424212879        8.38349449080919
N            4.99082604523872        6.64245902500925       10.03372013842564
O            8.17428741336993        1.23002368600574        8.27369249634316
C            8.49345552946268       -0.15211564591542        8.33131172927140
C            9.90782894655867       -0.32020116114001        8.90540010887570
C           10.20581828216319       -1.81359258976600        9.15356416725626
C           11.65113047066779       -1.97657364638057        8.68998884258720
C           11.70184531698556       -0.99933474177751        7.51269461442610
N           10.90095667433126        0.14298769720718        7.92057194068179
C           11.63065756117589        1.27934358192491        8.44966919184753
C           10.75657020700167        1.81951060505673        9.58032978398733
C           10.10786015326661        0.56134581356943       10.14648824520453
F           11.52000403943166        2.46997150955771       10.52655409395971
O           -0.74629757790465       -1.31508666787002        3.71269193286338
F            1.52468320248881       -2.48717999716603       10.95046821685850
H            3.18579692306385        1.25784473840837       10.60799614513303
H            0.08565661631455       -4.34235880627049        9.93727299909842
H           -0.83512955038275       -4.32241397794750        7.62876607752091
H           -1.12737489081236       -3.21932168096874        5.50846407096559
H            1.13572225286932        0.27533307811448        4.55878215663029
H            2.93426392265194        3.65140521402092        6.49885100435823
H            3.13728291193130        4.31236253425100        8.49507683868596
H            3.60491431015563        5.94279689502131        7.93894829250275
H            3.05481614610072        5.87533260190212       10.37668377473053
H            4.30080498248198        4.48723366603658       11.90338820626267
H            4.39434582653352        3.44224919264732       10.48259609747166
H            6.58643354719174        4.93318882462798       11.75992819809774
H            6.71787325990571        3.85747447422836       10.36259460470206
H            7.10211277699592        6.57033307243158       10.05578611861560
H            7.20515188452094        4.96865288926235        8.14849937529325
H            6.15816831486370        6.36699280224969        7.75063433744252
H            4.97616832648933        7.11707977573983       10.93144399800377
H            7.75954076849998       -0.66928340575514        8.95874030348689
H            8.44544888568517       -0.57623722423150        7.32329738808056
H           10.05731209337966       -2.08463014997851       10.19652946166151
H            9.54745689971926       -2.42815936953588        8.53922588752913
H           12.34361671962591       -1.65870108404488        9.47124220537424
H           11.89260058328535       -2.99713707053974        8.40341057204732
H           11.23231438801794       -1.45364132853920        6.63388941187647
H           12.71231233035520       -0.68999666309944        7.24595627478508
H           12.60670131788876        0.99513087428131        8.87057942945778
H           11.79510574574671        2.01849246730161        7.66125391634814
H           10.01480811738765        2.53757755691733        9.22225942517981
H            9.17594768387594        0.76728693102312       10.66677096282595
H           10.80803428022457        0.09389842077570       10.84119810895348
H           -1.45743792855863       -1.96963827338406        3.67918894719959
