60
 energy: -137.738809103873 gnorm: 0.003024218344 xtb: 6.7.1pre (5071a88)
N            0.08109577630104        0.18961890130584        0.29747759380894
C            0.08987447795162        1.55455486369272       -0.10772584205378
C            1.29588105985657       -0.48386695560475        0.30972840503859
C           -1.13439102315609       -0.41953993643383        0.50541994414577
N            1.22403426137242        2.13766214091005       -0.37174195041808
N           -1.05336591700388        2.19956996034337       -0.19213347279260
N            2.40771383882546        0.11894716713868        0.02900927610183
N            1.25938682374811       -1.78469196864490        0.67902219265987
N           -2.25293655764322        0.22092501743271        0.34985668987732
N           -1.11650725977385       -1.71177127146322        0.90910369517053
C            2.34473083357317        1.43024965427075       -0.22945999365840
C            0.10210349322587       -2.26629623238314        1.25258916927977
C           -2.16353637014920        1.53385775261969        0.07092589232646
N            3.54493996916287        2.05450628095057       -0.35903142384878
N            0.12567215118642       -3.47070021845479        1.93385755936682
N           -3.35635427729727        2.18235683246703        0.07879808833234
C            3.80037876489105        3.44720663543185       -0.09784441015233
C            4.70937740669060        1.39206735486984       -0.56481433733780
C           -3.54701778843459        3.57982608819474       -0.15667054101821
C           -4.44006831899401        1.44879411610468        0.35048585967424
C            1.00525151047424       -4.34812016098659        1.05819167886725
C           -0.95040506219949       -4.27585947606626        1.23615809496549
N            4.94943936180675        3.97570585339279       -0.37032836814795
N            5.82128187769163        1.87549099636826       -0.70679623812518
N           -4.83887726735258        4.03165389604932       -0.26716683369065
N           -5.40406380114964        0.86977630998199        0.55872373760592
N            2.05767211579371       -3.86246237463104        0.52339305870690
N           -2.06123206762016       -3.73405294949980        0.91508758491486
C            6.03917422964993        3.28419012961439       -0.79374925613219
C           -5.95026331415762        3.67718925983758        0.06400168389738
C           -0.03213623066421       -5.31503409657631        0.77875397127361
N            7.14029069272815        3.69743750656334       -1.21779688230444
N           -7.07178380571079        3.69432651765194        0.48445103526453
N           -0.03134500584436       -6.50920247265337        0.37569585128354
C            2.81956193639918        4.17746259004311        0.55819221340282
C           -2.55235874751789        4.43768150536480       -0.30255612180420
C            2.41220361918640       -2.61676050250777        0.58612682109166
C           -2.31923565501231       -2.46080105342047        1.03707237857812
C            1.61400894154361        4.58139070376482        0.88050038489875
C           -1.28965524816758        5.18031749493488       -0.36672680526554
N            2.61754268861367        5.55043009500183        1.12938701344401
N           -2.42028053529725        5.81204035720507       -0.53220508542770
H            7.25387666349784        4.69515387943479       -1.32501621054739
H           -7.89281458686441        3.21827100221812        0.17315167898276
H           -0.94308996942694       -6.94682817692326        0.30375974391052
H            2.65235438659989        6.32887562811686        0.46714720895583
H           -2.93432242696770        6.65385248653081       -0.70435475423181
H            0.55877037718833        4.45823610441440        0.91698410827732
C           -1.55094825527461       -0.65326656435534        3.92458086043396
C           -0.96902534049566        0.43656126065121        3.38426579815206
C            0.47667726408104        0.53779492017087        3.21425700397050
O            1.06873698435998        1.41985275183857        2.62965947970285
N            1.13953874265738       -0.54899849395116        3.75836116084577
C            0.59930573165637       -1.66660611093060        4.37347338596086
O            1.26137280048978       -2.54152854794319        4.85037838677623
N           -0.78701649344595       -1.67337241664514        4.39044837789048
F           -1.72000775131997        1.46170109649571        2.93343516072203
H           -2.62465367702221       -0.74644555252091        3.99229115725918
H            2.15400137075671       -0.53562694291054        3.69598528346922
H           -1.21855639793858       -2.50370263579541        4.77457585766771
